




                       MSC.Patran 21.1.348049 Fri Jul 03 23:12:17 PDT 2015 - Analysis Code: MSC.Nastran 

                                             Load Case: Combined_Loads, Subcase 6 

                                             Result Stress Tensor,  - Layer At Z1 

                                                     Entity: Element Tensor


-Entity ID--El. Pos. ID---X Location----Y Location----Z Location----von Mises---
       1           0      1994.936035     57.882732  -26125.00000     55.920879
       2           0      1994.936035     57.882732  -26375.00000     62.723106
       3           0      1994.936035     57.882732  -26625.00000     51.991085
       4           0      1994.936035     57.882732  -26875.00000     46.847023
       5           0      1994.936035     57.882732  -27125.00000     43.087803
       6           0      1994.936035     57.882732  -27375.00000     41.107479
       7           0      1994.936035     57.882732  -27625.00000     40.829941
       8           0      1994.936035     57.882732  -27875.00000     40.445412
       9           0      1994.936035     57.882732  -28125.00000     39.629864
      10           0      1994.936035     57.882732  -28375.00000     37.387753
      11           0      1994.936035     57.882732  -28625.00000     33.979416
      12           0      1994.936035     57.882732  -28875.00000     29.186401
      13           0      1994.936035     57.882732  -29125.00000     24.116257
      14           0      1994.936035     57.882732  -29375.00000     19.613729
      15           0      1994.936035     57.882732  -29625.00000     17.982950
      16           0      1994.936035     57.882732  -29875.00000     17.270542
      17           0      1984.807739    173.648193  -26125.00000     61.718380
      18           0      1984.807739    173.648193  -26375.00000     66.997818
      19           0      1984.807739    173.648193  -26625.00000     53.567631
      20           0      1984.807739    173.648193  -26875.00000     46.677181
      21           0      1984.807739    173.648193  -27125.00000     40.148758
      22           0      1984.807739    173.648193  -27375.00000     34.564793
      23           0      1984.807739    173.648193  -27625.00000     31.064705
      24           0      1984.807739    173.648193  -27875.00000     28.596701
      25           0      1984.807739    173.648193  -28125.00000     27.284277
      26           0      1984.807739    173.648193  -28375.00000     26.255711
      27           0      1984.807739    173.648193  -28625.00000     25.460257
      28           0      1984.807739    173.648193  -28875.00000     24.382935
      29           0      1984.807739    173.648193  -29125.00000     23.500416
      30           0      1984.807739    173.648193  -29375.00000     21.912790
      31           0      1984.807739    173.648193  -29625.00000     20.884640
      32           0      1984.807739    173.648193  -29875.00000     18.388916
      33           0      1974.679443    289.413666  -26125.00000     75.130173
      34           0      1974.679443    289.413666  -26375.00000     70.715851
      35           0      1974.679443    289.413666  -26625.00000     60.185772
      36           0      1974.679443    289.413666  -26875.00000     53.275421
      37           0      1974.679443    289.413666  -27125.00000     45.362022
      38           0      1974.679443    289.413666  -27375.00000     39.384464
      39           0      1974.679443    289.413666  -27625.00000     33.660625
      40           0      1974.679443    289.413666  -27875.00000     29.705732
      41           0      1974.679443    289.413666  -28125.00000     26.541592
      42           0      1974.679443    289.413666  -28375.00000     24.794285
      43           0      1974.679443    289.413666  -28625.00000     23.627785
      44           0      1974.679443    289.413666  -28875.00000     23.073528
      45           0      1974.679443    289.413666  -29125.00000     22.659826
      46           0      1974.679443    289.413666  -29375.00000     22.050308
      47           0      1974.679443    289.413666  -29625.00000     21.069563
      48           0      1974.679443    289.413666  -29875.00000     19.504473
      49           0      1954.577026    403.420410  -26125.00000     69.835503
      50           0      1954.577026    403.420410  -26375.00000     72.364563
      51           0      1954.577026    403.420410  -26625.00000     60.614506
      52           0      1954.577026    403.420410  -26875.00000     54.931343
      53           0      1954.577026    403.420410  -27125.00000     48.016293
      54           0      1954.577026    403.420410  -27375.00000     42.577637
      55           0      1954.577026    403.420410  -27625.00000     37.273792
      56           0      1954.577026    403.420410  -27875.00000     32.975800
      57           0      1954.577026    403.420410  -28125.00000     29.173328
      58           0      1954.577026    403.420410  -28375.00000     26.090734
      59           0      1954.577026    403.420410  -28625.00000     23.482935
      60           0      1954.577026    403.420410  -28875.00000     21.505327
      61           0      1954.577026    403.420410  -29125.00000     19.962263
      62           0      1954.577026    403.420410  -29375.00000     19.292416
      63           0      1954.577026    403.420410  -29625.00000     20.230745
      64           0      1954.577026    403.420410  -29875.00000     16.846577
      65           0      1924.500244    515.668335  -26125.00000     58.201954
      66           0      1924.500244    515.668335  -26375.00000     65.619835
      67           0      1924.500244    515.668335  -26625.00000     54.730938
      68           0      1924.500244    515.668335  -26875.00000     49.407951
      69           0      1924.500244    515.668335  -27125.00000     44.626751
      70           0      1924.500244    515.668335  -27375.00000     39.194042
      71           0      1924.500244    515.668335  -27625.00000     34.790199
      72           0      1924.500244    515.668335  -27875.00000     30.136415
      73           0      1924.500244    515.668335  -28125.00000     26.160294
      74           0      1924.500244    515.668335  -28375.00000     22.167788
      75           0      1924.500244    515.668335  -28625.00000     18.905725
      76           0      1924.500244    515.668335  -28875.00000     16.100403
      77           0      1924.500244    515.668335  -29125.00000     14.785071
      78           0      1924.500244    515.668335  -29375.00000     14.725425
      79           0      1924.500244    515.668335  -29625.00000     17.504568
      80           0      1924.500244    515.668335  -29875.00000     16.927071
      81           0      1894.423584    627.916321  -26125.00000     55.019455
      82           0      1894.423584    627.916321  -26375.00000     55.356468
      83           0      1894.423584    627.916321  -26625.00000     50.250744
      84           0      1894.423584    627.916321  -26875.00000     46.316677
      85           0      1894.423584    627.916321  -27125.00000     42.491756
      86           0      1894.423584    627.916321  -27375.00000     38.742821
      87           0      1894.423584    627.916321  -27625.00000     34.773281
      88           0      1894.423584    627.916321  -27875.00000     30.797237
      89           0      1894.423584    627.916321  -28125.00000     26.381689
      90           0      1894.423584    627.916321  -28375.00000     21.932701
      91           0      1894.423584    627.916321  -28625.00000     17.228060
      92           0      1894.423584    627.916321  -28875.00000     13.034041
      93           0      1894.423584    627.916321  -29125.00000     10.538279
      94           0      1894.423584    627.916321  -29375.00000     10.672000
      95           0      1894.423584    627.916321  -29625.00000     14.627063
      96           0      1894.423584    627.916321  -29875.00000     19.022177
      97           0      1854.829346    736.700317  -26125.00000     44.254601
      98           0      1854.829346    736.700317  -26375.00000     46.509018
      99           0      1854.829346    736.700317  -26625.00000     41.749340
     100           0      1854.829346    736.700317  -26875.00000     39.711140
     101           0      1854.829346    736.700317  -27125.00000     36.417595
     102           0      1854.829346    736.700317  -27375.00000     33.673592
     103           0      1854.829346    736.700317  -27625.00000     30.245035
     104           0      1854.829346    736.700317  -27875.00000     26.812893
     105           0      1854.829346    736.700317  -28125.00000     22.672049
     106           0      1854.829346    736.700317  -28375.00000     18.383894
     107           0      1854.829346    736.700317  -28625.00000     13.412302
     108           0      1854.829346    736.700317  -28875.00000      8.745670
     109           0      1854.829346    736.700317  -29125.00000      4.879108
     110           0      1854.829346    736.700317  -29375.00000      5.910478
     111           0      1854.829346    736.700317  -29625.00000     11.786831
     112           0      1854.829346    736.700317  -29875.00000     14.960598
     113           0      1805.717896    842.020203  -26125.00000     31.727869
     114           0      1805.717896    842.020203  -26375.00000     36.185978
     115           0      1805.717896    842.020203  -26625.00000     31.307207
     116           0      1805.717896    842.020203  -26875.00000     29.469601
     117           0      1805.717896    842.020203  -27125.00000     27.362162
     118           0      1805.717896    842.020203  -27375.00000     24.770960
     119           0      1805.717896    842.020203  -27625.00000     22.264297
     120           0      1805.717896    842.020203  -27875.00000     19.306253
     121           0      1805.717896    842.020203  -28125.00000     16.298189
     122           0      1805.717896    842.020203  -28375.00000     12.786137
     123           0      1805.717896    842.020203  -28625.00000      9.349612
     124           0      1805.717896    842.020203  -28875.00000      5.370736
     125           0      1805.717896    842.020203  -29125.00000      2.340090
     126           0      1805.717896    842.020203  -29375.00000      3.492285
     127           0      1805.717896    842.020203  -29625.00000      8.178986
     128           0      1805.717896    842.020203  -29875.00000      8.666674
     129           0      1756.606445    947.340088  -26125.00000     23.357588
     130           0      1756.606445    947.340088  -26375.00000     23.847219
     131           0      1756.606445    947.340088  -26625.00000     22.529606
     132           0      1756.606445    947.340088  -26875.00000     20.713419
     133           0      1756.606445    947.340088  -27125.00000     19.650236
     134           0      1756.606445    947.340088  -27375.00000     17.992455
     135           0      1756.606445    947.340088  -27625.00000     16.456980
     136           0      1756.606445    947.340088  -27875.00000     14.681293
     137           0      1756.606445    947.340088  -28125.00000     12.778637
     138           0      1756.606445    947.340088  -28375.00000     10.823647
     139           0      1756.606445    947.340088  -28625.00000      8.708781
     140           0      1756.606445    947.340088  -28875.00000      6.897652
     141           0      1756.606445    947.340088  -29125.00000      5.199851
     142           0      1756.606445    947.340088  -29375.00000      4.826291
     143           0      1756.606445    947.340088  -29625.00000      6.253614
     144           0      1756.606445    947.340088  -29875.00000      5.434482
     145           0      1698.723633   1047.595947  -26125.00000     14.253770
     146           0      1698.723633   1047.595947  -26375.00000     14.663071
     147           0      1698.723633   1047.595947  -26625.00000     13.756242
     148           0      1698.723633   1047.595947  -26875.00000     13.359295
     149           0      1698.723633   1047.595947  -27125.00000     12.814839
     150           0      1698.723633   1047.595947  -27375.00000     12.294981
     151           0      1698.723633   1047.595947  -27625.00000     11.727043
     152           0      1698.723633   1047.595947  -27875.00000     11.013152
     153           0      1698.723633   1047.595947  -28125.00000     10.217636
     154           0      1698.723633   1047.595947  -28375.00000      9.317752
     155           0      1698.723633   1047.595947  -28625.00000      8.371431
     156           0      1698.723633   1047.595947  -28875.00000      7.539669
     157           0      1698.723633   1047.595947  -29125.00000      6.818898
     158           0      1698.723633   1047.595947  -29375.00000      6.374593
     159           0      1698.723633   1047.595947  -29625.00000      6.632009
     160           0      1698.723633   1047.595947  -29875.00000      6.629332
     161           0      1632.069702   1142.787598  -26125.00000      6.692675
     162           0      1632.069702   1142.787598  -26375.00000      8.053896
     163           0      1632.069702   1142.787598  -26625.00000      7.652345
     164           0      1632.069702   1142.787598  -26875.00000      8.339507
     165           0      1632.069702   1142.787598  -27125.00000      8.570382
     166           0      1632.069702   1142.787598  -27375.00000      8.973564
     167           0      1632.069702   1142.787598  -27625.00000      9.098972
     168           0      1632.069702   1142.787598  -27875.00000      9.177809
     169           0      1632.069702   1142.787598  -28125.00000      9.067276
     170           0      1632.069702   1142.787598  -28375.00000      8.843129
     171           0      1632.069702   1142.787598  -28625.00000      8.595637
     172           0      1632.069702   1142.787598  -28875.00000      8.223761
     173           0      1632.069702   1142.787598  -29125.00000      8.128606
     174           0      1632.069702   1142.787598  -29375.00000      7.575788
     175           0      1632.069702   1142.787598  -29625.00000      8.220263
     176           0      1632.069702   1142.787598  -29875.00000      7.253753
     177           0      1565.415771   1237.979248  -26125.00000      1.766736
     178           0      1565.415771   1237.979248  -26375.00000      1.021338
     179           0      1565.415771   1237.979248  -26625.00000      1.260329
     180           0      1565.415771   1237.979248  -26875.00000      1.726847
     181           0      1565.415771   1237.979248  -27125.00000      2.483095
     182           0      1565.415771   1237.979248  -27375.00000      3.044521
     183           0      1565.415771   1237.979248  -27625.00000      3.566841
     184           0      1565.415771   1237.979248  -27875.00000      4.010121
     185           0      1565.415771   1237.979248  -28125.00000      4.436401
     186           0      1565.415771   1237.979248  -28375.00000      4.971992
     187           0      1565.415771   1237.979248  -28625.00000      5.578558
     188           0      1565.415771   1237.979248  -28875.00000      6.397209
     189           0      1565.415771   1237.979248  -29125.00000      7.272899
     190           0      1565.415771   1237.979248  -29375.00000      8.251654
     191           0      1565.415771   1237.979248  -29625.00000      9.420670
     192           0      1565.415771   1237.979248  -29875.00000      9.346559
     193           0      1491.003052   1326.660889  -26125.00000      5.784575
     194           0      1491.003052   1326.660889  -26375.00000      5.361623
     195           0      1491.003052   1326.660889  -26625.00000      4.575050
     196           0      1491.003052   1326.660889  -26875.00000      4.500742
     197           0      1491.003052   1326.660889  -27125.00000      4.032334
     198           0      1491.003052   1326.660889  -27375.00000      3.750540
     199           0      1491.003052   1326.660889  -27625.00000      3.348988
     200           0      1491.003052   1326.660889  -27875.00000      2.986411
     201           0      1491.003052   1326.660889  -28125.00000      2.905050
     202           0      1491.003052   1326.660889  -28375.00000      3.116081
     203           0      1491.003052   1326.660889  -28625.00000      3.954431
     204           0      1491.003052   1326.660889  -28875.00000      5.036852
     205           0      1491.003052   1326.660889  -29125.00000      6.485349
     206           0      1491.003052   1326.660889  -29375.00000      7.797006
     207           0      1491.003052   1326.660889  -29625.00000     10.390066
     208           0      1491.003052   1326.660889  -29875.00000      9.365596
     209           0      1408.831787   1408.832031  -26125.00000      7.035779
     210           0      1408.831787   1408.832031  -26375.00000      8.624438
     211           0      1408.831787   1408.832031  -26625.00000      8.133348
     212           0      1408.831787   1408.832031  -26875.00000      7.413946
     213           0      1408.831787   1408.832031  -27125.00000      7.166996
     214           0      1408.831787   1408.832031  -27375.00000      6.424212
     215           0      1408.831787   1408.832031  -27625.00000      5.900954
     216           0      1408.831787   1408.832031  -27875.00000      5.189553
     217           0      1408.831787   1408.832031  -28125.00000      4.628728
     218           0      1408.831787   1408.832031  -28375.00000      4.250148
     219           0      1408.831787   1408.832031  -28625.00000      4.256840
     220           0      1408.831787   1408.832031  -28875.00000      4.754216
     221           0      1408.831787   1408.832031  -29125.00000      5.775829
     222           0      1408.831787   1408.832031  -29375.00000      6.651488
     223           0      1408.831787   1408.832031  -29625.00000      9.553290
     224           0      1408.831787   1408.832031  -29875.00000      8.138125
     225           0      1326.660767   1491.003174  -26125.00000      9.305338
     226           0      1326.660767   1491.003174  -26375.00000      9.484896
     227           0      1326.660767   1491.003174  -26625.00000      7.991106
     228           0      1326.660767   1491.003174  -26875.00000      7.521606
     229           0      1326.660767   1491.003174  -27125.00000      6.282251
     230           0      1326.660767   1491.003174  -27375.00000      5.445088
     231           0      1326.660767   1491.003174  -27625.00000      4.272556
     232           0      1326.660767   1491.003174  -27875.00000      3.294433
     233           0      1326.660767   1491.003174  -28125.00000      2.354899
     234           0      1326.660767   1491.003174  -28375.00000      2.032284
     235           0      1326.660767   1491.003174  -28625.00000      2.609197
     236           0      1326.660767   1491.003174  -28875.00000      3.864079
     237           0      1326.660767   1491.003174  -29125.00000      5.244754
     238           0      1326.660767   1491.003174  -29375.00000      6.933598
     239           0      1326.660767   1491.003174  -29625.00000      8.929035
     240           0      1326.660767   1491.003174  -29875.00000      9.007562
     241           0      1237.979248   1565.415771  -26125.00000     10.226039
     242           0      1237.979248   1565.415771  -26375.00000      9.582599
     243           0      1237.979248   1565.415771  -26625.00000      8.286659
     244           0      1237.979248   1565.415771  -26875.00000      7.891983
     245           0      1237.979248   1565.415771  -27125.00000      6.648582
     246           0      1237.979248   1565.415771  -27375.00000      5.964952
     247           0      1237.979248   1565.415771  -27625.00000      4.851864
     248           0      1237.979248   1565.415771  -27875.00000      4.057673
     249           0      1237.979248   1565.415771  -28125.00000      3.174970
     250           0      1237.979248   1565.415771  -28375.00000      2.757886
     251           0      1237.979248   1565.415771  -28625.00000      2.836282
     252           0      1237.979248   1565.415771  -28875.00000      3.601507
     253           0      1237.979248   1565.415771  -29125.00000      4.707382
     254           0      1237.979248   1565.415771  -29375.00000      6.002751
     255           0      1237.979248   1565.415771  -29625.00000      8.083199
     256           0      1237.979248   1565.415771  -29875.00000      7.656641
     257           0      1142.787476   1632.069824  -26125.00000      7.799850
     258           0      1142.787476   1632.069824  -26375.00000      8.893068
     259           0      1142.787476   1632.069824  -26625.00000      8.158195
     260           0      1142.787476   1632.069824  -26875.00000      7.073570
     261           0      1142.787476   1632.069824  -27125.00000      6.582108
     262           0      1142.787476   1632.069824  -27375.00000      5.586833
     263           0      1142.787476   1632.069824  -27625.00000      4.919010
     264           0      1142.787476   1632.069824  -27875.00000      4.076796
     265           0      1142.787476   1632.069824  -28125.00000      3.422841
     266           0      1142.787476   1632.069824  -28375.00000      2.908523
     267           0      1142.787476   1632.069824  -28625.00000      2.749296
     268           0      1142.787476   1632.069824  -28875.00000      2.967614
     269           0      1142.787476   1632.069824  -29125.00000      3.758759
     270           0      1142.787476   1632.069824  -29375.00000      4.188241
     271           0      1142.787476   1632.069824  -29625.00000      6.702947
     272           0      1142.787476   1632.069824  -29875.00000      4.993695
     273           0      1047.595825   1698.723877  -26125.00000      6.209247
     274           0      1047.595825   1698.723877  -26375.00000      7.145562
     275           0      1047.595825   1698.723877  -26625.00000      6.498305
     276           0      1047.595825   1698.723877  -26875.00000      6.224493
     277           0      1047.595825   1698.723877  -27125.00000      5.917793
     278           0      1047.595825   1698.723877  -27375.00000      5.561665
     279           0      1047.595825   1698.723877  -27625.00000      5.289522
     280           0      1047.595825   1698.723877  -27875.00000      4.940884
     281           0      1047.595825   1698.723877  -28125.00000      4.743217
     282           0      1047.595825   1698.723877  -28375.00000      4.479233
     283           0      1047.595825   1698.723877  -28625.00000      4.436290
     284           0      1047.595825   1698.723877  -28875.00000      4.433969
     285           0      1047.595825   1698.723877  -29125.00000      4.591719
     286           0      1047.595825   1698.723877  -29375.00000      5.002597
     287           0      1047.595825   1698.723877  -29625.00000      5.967426
     288           0      1047.595825   1698.723877  -29875.00000      4.510215
     289           0       947.339905   1756.606445  -26125.00000      6.358764
     290           0       947.339905   1756.606445  -26375.00000      5.891868
     291           0       947.339905   1756.606445  -26625.00000      5.429560
     292           0       947.339905   1756.606445  -26875.00000      5.699420
     293           0       947.339905   1756.606445  -27125.00000      5.323517
     294           0       947.339905   1756.606445  -27375.00000      5.373014
     295           0       947.339905   1756.606445  -27625.00000      5.085867
     296           0       947.339905   1756.606445  -27875.00000      5.013675
     297           0       947.339905   1756.606445  -28125.00000      4.747970
     298           0       947.339905   1756.606445  -28375.00000      4.652252
     299           0       947.339905   1756.606445  -28625.00000      4.404294
     300           0       947.339905   1756.606445  -28875.00000      4.413339
     301           0       947.339905   1756.606445  -29125.00000      4.197768
     302           0       947.339905   1756.606445  -29375.00000      4.479910
     303           0       947.339905   1756.606445  -29625.00000      4.604488
     304           0       947.339905   1756.606445  -29875.00000      3.503065
     305           0       842.020020   1805.718018  -26125.00000      4.519339
     306           0       842.020020   1805.718018  -26375.00000      5.155280
     307           0       842.020020   1805.718018  -26625.00000      4.826008
     308           0       842.020020   1805.718018  -26875.00000      4.687281
     309           0       842.020020   1805.718018  -27125.00000      4.547973
     310           0       842.020020   1805.718018  -27375.00000      4.400958
     311           0       842.020020   1805.718018  -27625.00000      4.285988
     312           0       842.020020   1805.718018  -27875.00000      4.167535
     313           0       842.020020   1805.718018  -28125.00000      4.065362
     314           0       842.020020   1805.718018  -28375.00000      3.973027
     315           0       842.020020   1805.718018  -28625.00000      3.905442
     316           0       842.020020   1805.718018  -28875.00000      3.818666
     317           0       842.020020   1805.718018  -29125.00000      3.852656
     318           0       842.020020   1805.718018  -29375.00000      3.614419
     319           0       842.020020   1805.718018  -29625.00000      4.321981
     320           0       842.020020   1805.718018  -29875.00000      2.670149
     321           0       736.700073   1854.829468  -26125.00000      4.379388
     322           0       736.700073   1854.829468  -26375.00000      5.978920
     323           0       736.700073   1854.829468  -26625.00000      5.998703
     324           0       736.700073   1854.829468  -26875.00000      5.654418
     325           0       736.700073   1854.829468  -27125.00000      5.754811
     326           0       736.700073   1854.829468  -27375.00000      5.470128
     327           0       736.700073   1854.829468  -27625.00000      5.426631
     328           0       736.700073   1854.829468  -27875.00000      5.163779
     329           0       736.700073   1854.829468  -28125.00000      5.060457
     330           0       736.700073   1854.829468  -28375.00000      4.790620
     331           0       736.700073   1854.829468  -28625.00000      4.680548
     332           0       736.700073   1854.829468  -28875.00000      4.399907
     333           0       736.700073   1854.829468  -29125.00000      4.315692
     334           0       736.700073   1854.829468  -29375.00000      4.013316
     335           0       736.700073   1854.829468  -29625.00000      4.275222
     336           0       736.700073   1854.829468  -29875.00000      3.041828
     337           0       627.916199   1894.423584  -26125.00000      6.144091
     338           0       627.916199   1894.423584  -26375.00000      7.536495
     339           0       627.916199   1894.423584  -26625.00000      6.487017
     340           0       627.916199   1894.423584  -26875.00000      6.245873
     341           0       627.916199   1894.423584  -27125.00000      5.903481
     342           0       627.916199   1894.423584  -27375.00000      5.621132
     343           0       627.916199   1894.423584  -27625.00000      5.262821
     344           0       627.916199   1894.423584  -27875.00000      5.040450
     345           0       627.916199   1894.423584  -28125.00000      4.689127
     346           0       627.916199   1894.423584  -28375.00000      4.534106
     347           0       627.916199   1894.423584  -28625.00000      4.196568
     348           0       627.916199   1894.423584  -28875.00000      4.136393
     349           0       627.916199   1894.423584  -29125.00000      3.783527
     350           0       627.916199   1894.423584  -29375.00000      3.858036
     351           0       627.916199   1894.423584  -29625.00000      3.562191
     352           0       627.916199   1894.423584  -29875.00000      2.251441
     353           0       515.668213   1924.500366  -26125.00000      6.672458
     354           0       515.668213   1924.500366  -26375.00000      8.059365
     355           0       515.668213   1924.500366  -26625.00000      6.098578
     356           0       515.668213   1924.500366  -26875.00000      6.034347
     357           0       515.668213   1924.500366  -27125.00000      5.322845
     358           0       515.668213   1924.500366  -27375.00000      4.978393
     359           0       515.668213   1924.500366  -27625.00000      4.557489
     360           0       515.668213   1924.500366  -27875.00000      4.272207
     361           0       515.668213   1924.500366  -28125.00000      4.055614
     362           0       515.668213   1924.500366  -28375.00000      3.896935
     363           0       515.668213   1924.500366  -28625.00000      3.838923
     364           0       515.668213   1924.500366  -28875.00000      3.846088
     365           0       515.668213   1924.500366  -29125.00000      3.860334
     366           0       515.668213   1924.500366  -29375.00000      4.036313
     367           0       515.668213   1924.500366  -29625.00000      4.215414
     368           0       515.668213   1924.500366  -29875.00000      3.215226
     369           0       403.420227   1954.577148  -26125.00000      8.614130
     370           0       403.420227   1954.577148  -26375.00000      9.591962
     371           0       403.420227   1954.577148  -26625.00000      8.579746
     372           0       403.420227   1954.577148  -26875.00000      7.617779
     373           0       403.420227   1954.577148  -27125.00000      7.023950
     374           0       403.420227   1954.577148  -27375.00000      6.206489
     375           0       403.420227   1954.577148  -27625.00000      5.645597
     376           0       403.420227   1954.577148  -27875.00000      5.008165
     377           0       403.420227   1954.577148  -28125.00000      4.558292
     378           0       403.420227   1954.577148  -28375.00000      4.106727
     379           0       403.420227   1954.577148  -28625.00000      3.866284
     380           0       403.420227   1954.577148  -28875.00000      3.589666
     381           0       403.420227   1954.577148  -29125.00000      3.658495
     382           0       403.420227   1954.577148  -29375.00000      3.483854
     383           0       403.420227   1954.577148  -29625.00000      3.862055
     384           0       403.420227   1954.577148  -29875.00000      3.831481
     385           0       289.413513   1974.679565  -26125.00000      9.322686
     386           0       289.413513   1974.679565  -26375.00000     10.765713
     387           0       289.413513   1974.679565  -26625.00000      9.065903
     388           0       289.413513   1974.679565  -26875.00000      8.105952
     389           0       289.413513   1974.679565  -27125.00000      7.264893
     390           0       289.413513   1974.679565  -27375.00000      6.374576
     391           0       289.413513   1974.679565  -27625.00000      5.584894
     392           0       289.413513   1974.679565  -27875.00000      4.903582
     393           0       289.413513   1974.679565  -28125.00000      4.234174
     394           0       289.413513   1974.679565  -28375.00000      3.813348
     395           0       289.413513   1974.679565  -28625.00000      3.374993
     396           0       289.413513   1974.679565  -28875.00000      3.285565
     397           0       289.413513   1974.679565  -29125.00000      3.190401
     398           0       289.413513   1974.679565  -29375.00000      3.380909
     399           0       289.413513   1974.679565  -29625.00000      3.617631
     400           0       289.413513   1974.679565  -29875.00000      3.302637
     401           0       173.648041   1984.807617  -26125.00000      8.885455
     402           0       173.648041   1984.807617  -26375.00000     10.786201
     403           0       173.648041   1984.807617  -26625.00000      7.925685
     404           0       173.648041   1984.807617  -26875.00000      7.537189
     405           0       173.648041   1984.807617  -27125.00000      6.378459
     406           0       173.648041   1984.807617  -27375.00000      5.615325
     407           0       173.648041   1984.807617  -27625.00000      4.785411
     408           0       173.648041   1984.807617  -27875.00000      4.130379
     409           0       173.648041   1984.807617  -28125.00000      3.631537
     410           0       173.648041   1984.807617  -28375.00000      3.273656
     411           0       173.648041   1984.807617  -28625.00000      3.187826
     412           0       173.648041   1984.807617  -28875.00000      3.333071
     413           0       173.648041   1984.807617  -29125.00000      3.499455
     414           0       173.648041   1984.807617  -29375.00000      4.132980
     415           0       173.648041   1984.807617  -29625.00000      4.458493
     416           0       173.648041   1984.807617  -29875.00000      3.737340
     417           0        57.882576   1994.935791  -26125.00000     10.251796
     418           0        57.882576   1994.935791  -26375.00000     11.403494
     419           0        57.882576   1994.935791  -26625.00000      9.758587
     420           0        57.882576   1994.935791  -26875.00000      8.595735
     421           0        57.882576   1994.935791  -27125.00000      7.662357
     422           0        57.882576   1994.935791  -27375.00000      6.607496
     423           0        57.882576   1994.935791  -27625.00000      5.732380
     424           0        57.882576   1994.935791  -27875.00000      4.890811
     425           0        57.882576   1994.935791  -28125.00000      4.153794
     426           0        57.882576   1994.935791  -28375.00000      3.589465
     427           0        57.882576   1994.935791  -28625.00000      3.162438
     428           0        57.882576   1994.935791  -28875.00000      2.982273
     429           0        57.882576   1994.935791  -29125.00000      3.086026
     430           0        57.882576   1994.935791  -29375.00000      3.227459
     431           0        57.882576   1994.935791  -29625.00000      3.732838
     432           0        57.882576   1994.935791  -29875.00000      3.899256
     433           0       -57.882874   1994.935791  -26125.00000     10.235102
     434           0       -57.882874   1994.935791  -26375.00000     11.345139
     435           0       -57.882874   1994.935791  -26625.00000      9.750197
     436           0       -57.882874   1994.935791  -26875.00000      8.575741
     437           0       -57.882874   1994.935791  -27125.00000      7.657585
     438           0       -57.882874   1994.935791  -27375.00000      6.601958
     439           0       -57.882874   1994.935791  -27625.00000      5.742822
     440           0       -57.882874   1994.935791  -27875.00000      4.900500
     441           0       -57.882874   1994.935791  -28125.00000      4.185185
     442           0       -57.882874   1994.935791  -28375.00000      3.615746
     443           0       -57.882874   1994.935791  -28625.00000      3.219821
     444           0       -57.882874   1994.935791  -28875.00000      3.016932
     445           0       -57.882874   1994.935791  -29125.00000      3.158360
     446           0       -57.882874   1994.935791  -29375.00000      3.254782
     447           0       -57.882874   1994.935791  -29625.00000      3.788233
     448           0       -57.882874   1994.935791  -29875.00000      4.051153
     449           0      -173.648315   1984.807617  -26125.00000      8.812195
     450           0      -173.648315   1984.807617  -26375.00000     10.707965
     451           0      -173.648315   1984.807617  -26625.00000      7.883594
     452           0      -173.648315   1984.807617  -26875.00000      7.507185
     453           0      -173.648315   1984.807617  -27125.00000      6.371725
     454           0      -173.648315   1984.807617  -27375.00000      5.630928
     455           0      -173.648315   1984.807617  -27625.00000      4.828753
     456           0      -173.648315   1984.807617  -27875.00000      4.203118
     457           0      -173.648315   1984.807617  -28125.00000      3.733279
     458           0      -173.648315   1984.807617  -28375.00000      3.404075
     459           0      -173.648315   1984.807617  -28625.00000      3.330110
     460           0      -173.648315   1984.807617  -28875.00000      3.477380
     461           0      -173.648315   1984.807617  -29125.00000      3.635283
     462           0      -173.648315   1984.807617  -29375.00000      4.246245
     463           0      -173.648315   1984.807617  -29625.00000      4.557278
     464           0      -173.648315   1984.807617  -29875.00000      3.847375
     465           0      -289.413757   1974.679443  -26125.00000      9.198855
     466           0      -289.413757   1974.679443  -26375.00000     10.667531
     467           0      -289.413757   1974.679443  -26625.00000      8.961669
     468           0      -289.413757   1974.679443  -26875.00000      8.046561
     469           0      -289.413757   1974.679443  -27125.00000      7.224354
     470           0      -289.413757   1974.679443  -27375.00000      6.376228
     471           0      -289.413757   1974.679443  -27625.00000      5.612765
     472           0      -289.413757   1974.679443  -27875.00000      4.978831
     473           0      -289.413757   1974.679443  -28125.00000      4.340986
     474           0      -289.413757   1974.679443  -28375.00000      3.969713
     475           0      -289.413757   1974.679443  -28625.00000      3.554393
     476           0      -289.413757   1974.679443  -28875.00000      3.502925
     477           0      -289.413757   1974.679443  -29125.00000      3.388705
     478           0      -289.413757   1974.679443  -29375.00000      3.601097
     479           0      -289.413757   1974.679443  -29625.00000      3.782795
     480           0      -289.413757   1974.679443  -29875.00000      3.354543
     481           0      -403.420471   1954.577026  -26125.00000      8.461494
     482           0      -403.420471   1954.577026  -26375.00000      9.404063
     483           0      -403.420471   1954.577026  -26625.00000      8.480187
     484           0      -403.420471   1954.577026  -26875.00000      7.537773
     485           0      -403.420471   1954.577026  -27125.00000      6.993484
     486           0      -403.420471   1954.577026  -27375.00000      6.210453
     487           0      -403.420471   1954.577026  -27625.00000      5.700204
     488           0      -403.420471   1954.577026  -27875.00000      5.099009
     489           0      -403.420471   1954.577026  -28125.00000      4.702853
     490           0      -403.420471   1954.577026  -28375.00000      4.279663
     491           0      -403.420471   1954.577026  -28625.00000      4.088349
     492           0      -403.420471   1954.577026  -28875.00000      3.816229
     493           0      -403.420471   1954.577026  -29125.00000      3.915314
     494           0      -403.420471   1954.577026  -29375.00000      3.713261
     495           0      -403.420471   1954.577026  -29625.00000      4.097684
     496           0      -403.420471   1954.577026  -29875.00000      4.111708
     497           0      -515.668457   1924.500244  -26125.00000      6.554749
     498           0      -515.668457   1924.500244  -26375.00000      7.913497
     499           0      -515.668457   1924.500244  -26625.00000      6.074716
     500           0      -515.668457   1924.500244  -26875.00000      6.032381
     501           0      -515.668457   1924.500244  -27125.00000      5.386360
     502           0      -515.668457   1924.500244  -27375.00000      5.086298
     503           0      -515.668457   1924.500244  -27625.00000      4.720160
     504           0      -515.668457   1924.500244  -27875.00000      4.478245
     505           0      -515.668457   1924.500244  -28125.00000      4.297141
     506           0      -515.668457   1924.500244  -28375.00000      4.169284
     507           0      -515.668457   1924.500244  -28625.00000      4.120059
     508           0      -515.668457   1924.500244  -28875.00000      4.134341
     509           0      -515.668457   1924.500244  -29125.00000      4.137088
     510           0      -515.668457   1924.500244  -29375.00000      4.292657
     511           0      -515.668457   1924.500244  -29625.00000      4.444589
     512           0      -515.668457   1924.500244  -29875.00000      3.492886
     513           0      -627.916382   1894.423340  -26125.00000      6.099900
     514           0      -627.916382   1894.423340  -26375.00000      7.428648
     515           0      -627.916382   1894.423340  -26625.00000      6.418586
     516           0      -627.916382   1894.423340  -26875.00000      6.247140
     517           0      -627.916382   1894.423340  -27125.00000      5.926352
     518           0      -627.916382   1894.423340  -27375.00000      5.700735
     519           0      -627.916382   1894.423340  -27625.00000      5.369033
     520           0      -627.916382   1894.423340  -27875.00000      5.189692
     521           0      -627.916382   1894.423340  -28125.00000      4.864213
     522           0      -627.916382   1894.423340  -28375.00000      4.740181
     523           0      -627.916382   1894.423340  -28625.00000      4.421307
     524           0      -627.916382   1894.423340  -28875.00000      4.381358
     525           0      -627.916382   1894.423340  -29125.00000      4.031794
     526           0      -627.916382   1894.423340  -29375.00000      4.121758
     527           0      -627.916382   1894.423340  -29625.00000      3.797327
     528           0      -627.916382   1894.423340  -29875.00000      2.509571
     529           0      -736.700378   1854.829224  -26125.00000      4.423147
     530           0      -736.700378   1854.829224  -26375.00000      5.984382
     531           0      -736.700378   1854.829224  -26625.00000      6.060259
     532           0      -736.700378   1854.829224  -26875.00000      5.738936
     533           0      -736.700378   1854.829224  -27125.00000      5.864733
     534           0      -736.700378   1854.829224  -27375.00000      5.598063
     535           0      -736.700378   1854.829224  -27625.00000      5.574922
     536           0      -736.700378   1854.829224  -27875.00000      5.323246
     537           0      -736.700378   1854.829224  -28125.00000      5.238931
     538           0      -736.700378   1854.829224  -28375.00000      4.972224
     539           0      -736.700378   1854.829224  -28625.00000      4.881599
     540           0      -736.700378   1854.829224  -28875.00000      4.594532
     541           0      -736.700378   1854.829224  -29125.00000      4.532491
     542           0      -736.700378   1854.829224  -29375.00000      4.212262
     543           0      -736.700378   1854.829224  -29625.00000      4.498253
     544           0      -736.700378   1854.829224  -29875.00000      3.324870
     545           0      -842.020264   1805.717773  -26125.00000      4.998247
     546           0      -842.020264   1805.717773  -26375.00000      5.556315
     547           0      -842.020264   1805.717773  -26625.00000      5.289562
     548           0      -842.020264   1805.717773  -26875.00000      5.091505
     549           0      -842.020264   1805.717773  -27125.00000      4.961353
     550           0      -842.020264   1805.717773  -27375.00000      4.776457
     551           0      -842.020264   1805.717773  -27625.00000      4.649396
     552           0      -842.020264   1805.717773  -27875.00000      4.502965
     553           0      -842.020264   1805.717773  -28125.00000      4.377776
     554           0      -842.020264   1805.717773  -28375.00000      4.264057
     555           0      -842.020264   1805.717773  -28625.00000      4.167021
     556           0      -842.020264   1805.717773  -28875.00000      4.064923
     557           0      -842.020264   1805.717773  -29125.00000      4.067198
     558           0      -842.020264   1805.717773  -29375.00000      3.826493
     559           0      -842.020264   1805.717773  -29625.00000      4.485833
     560           0      -842.020264   1805.717773  -29875.00000      2.922078
     561           0      -947.340088   1756.606201  -26125.00000      7.005573
     562           0      -947.340088   1756.606201  -26375.00000      6.439466
     563           0      -947.340088   1756.606201  -26625.00000      5.931458
     564           0      -947.340088   1756.606201  -26875.00000      6.149129
     565           0      -947.340088   1756.606201  -27125.00000      5.695845
     566           0      -947.340088   1756.606201  -27375.00000      5.703485
     567           0      -947.340088   1756.606201  -27625.00000      5.355819
     568           0      -947.340088   1756.606201  -27875.00000      5.245009
     569           0      -947.340088   1756.606201  -28125.00000      4.934211
     570           0      -947.340088   1756.606201  -28375.00000      4.806815
     571           0      -947.340088   1756.606201  -28625.00000      4.527203
     572           0      -947.340088   1756.606201  -28875.00000      4.517071
     573           0      -947.340088   1756.606201  -29125.00000      4.281147
     574           0      -947.340088   1756.606201  -29375.00000      4.570696
     575           0      -947.340088   1756.606201  -29625.00000      4.663736
     576           0      -947.340088   1756.606201  -29875.00000      3.618000
     577           0     -1047.595947   1698.723511  -26125.00000      7.011588
     578           0     -1047.595947   1698.723511  -26375.00000      7.860203
     579           0     -1047.595947   1698.723511  -26625.00000      7.108953
     580           0     -1047.595947   1698.723511  -26875.00000      6.777357
     581           0     -1047.595947   1698.723511  -27125.00000      6.382475
     582           0     -1047.595947   1698.723511  -27375.00000      5.957497
     583           0     -1047.595947   1698.723511  -27625.00000      5.606467
     584           0     -1047.595947   1698.723511  -27875.00000      5.187654
     585           0     -1047.595947   1698.723511  -28125.00000      4.922824
     586           0     -1047.595947   1698.723511  -28375.00000      4.591732
     587           0     -1047.595947   1698.723511  -28625.00000      4.504295
     588           0     -1047.595947   1698.723511  -28875.00000      4.451111
     589           0     -1047.595947   1698.723511  -29125.00000      4.602427
     590           0     -1047.595947   1698.723511  -29375.00000      4.993587
     591           0     -1047.595947   1698.723511  -29625.00000      6.000298
     592           0     -1047.595947   1698.723511  -29875.00000      4.536169
     593           0     -1142.787598   1632.069580  -26125.00000      8.701873
     594           0     -1142.787598   1632.069580  -26375.00000      9.735660
     595           0     -1142.787598   1632.069580  -26625.00000      8.900132
     596           0     -1142.787598   1632.069580  -26875.00000      7.766013
     597           0     -1142.787598   1632.069580  -27125.00000      7.219413
     598           0     -1142.787598   1632.069580  -27375.00000      6.156651
     599           0     -1142.787598   1632.069580  -27625.00000      5.428583
     600           0     -1142.787598   1632.069580  -27875.00000      4.510572
     601           0     -1142.787598   1632.069580  -28125.00000      3.774216
     602           0     -1142.787598   1632.069580  -28375.00000      3.151798
     603           0     -1142.787598   1632.069580  -28625.00000      2.860934
     604           0     -1142.787598   1632.069580  -28875.00000      2.975947
     605           0     -1142.787598   1632.069580  -29125.00000      3.709179
     606           0     -1142.787598   1632.069580  -29375.00000      4.137013
     607           0     -1142.787598   1632.069580  -29625.00000      6.673104
     608           0     -1142.787598   1632.069580  -29875.00000      4.981283
     609           0     -1237.979370   1565.415527  -26125.00000     11.084994
     610           0     -1237.979370   1565.415527  -26375.00000     10.445853
     611           0     -1237.979370   1565.415527  -26625.00000      9.071901
     612           0     -1237.979370   1565.415527  -26875.00000      8.608083
     613           0     -1237.979370   1565.415527  -27125.00000      7.290787
     614           0     -1237.979370   1565.415527  -27375.00000      6.532971
     615           0     -1237.979370   1565.415527  -27625.00000      5.334118
     616           0     -1237.979370   1565.415527  -27875.00000      4.446460
     617           0     -1237.979370   1565.415527  -28125.00000      3.436310
     618           0     -1237.979370   1565.415527  -28375.00000      2.858032
     619           0     -1237.979370   1565.415527  -28625.00000      2.763138
     620           0     -1237.979370   1565.415527  -28875.00000      3.457377
     621           0     -1237.979370   1565.415527  -29125.00000      4.557529
     622           0     -1237.979370   1565.415527  -29375.00000      5.894622
     623           0     -1237.979370   1565.415527  -29625.00000      8.005820
     624           0     -1237.979370   1565.415527  -29875.00000      7.637091
     625           0     -1326.660889   1491.003052  -26125.00000     10.218288
     626           0     -1326.660889   1491.003052  -26375.00000     10.377893
     627           0     -1326.660889   1491.003052  -26625.00000      8.793848
     628           0     -1326.660889   1491.003052  -26875.00000      8.265962
     629           0     -1326.660889   1491.003052  -27125.00000      6.953711
     630           0     -1326.660889   1491.003052  -27375.00000      6.045627
     631           0     -1326.660889   1491.003052  -27625.00000      4.791684
     632           0     -1326.660889   1491.003052  -27875.00000      3.717882
     633           0     -1326.660889   1491.003052  -28125.00000      2.629645
     634           0     -1326.660889   1491.003052  -28375.00000      2.055393
     635           0     -1326.660889   1491.003052  -28625.00000      2.439280
     636           0     -1326.660889   1491.003052  -28875.00000      3.660311
     637           0     -1326.660889   1491.003052  -29125.00000      5.071779
     638           0     -1326.660889   1491.003052  -29375.00000      6.807955
     639           0     -1326.660889   1491.003052  -29625.00000      8.862534
     640           0     -1326.660889   1491.003052  -29875.00000      8.980133
     641           0     -1408.832275   1408.831787  -26125.00000      8.021379
     642           0     -1408.832275   1408.831787  -26375.00000      9.506026
     643           0     -1408.832275   1408.831787  -26625.00000      8.872221
     644           0     -1408.832275   1408.831787  -26875.00000      8.068635
     645           0     -1408.832275   1408.831787  -27125.00000      7.737385
     646           0     -1408.832275   1408.831787  -27375.00000      6.885732
     647           0     -1408.832275   1408.831787  -27625.00000      6.271105
     648           0     -1408.832275   1408.831787  -27875.00000      5.442365
     649           0     -1408.832275   1408.831787  -28125.00000      4.766833
     650           0     -1408.832275   1408.831787  -28375.00000      4.257420
     651           0     -1408.832275   1408.831787  -28625.00000      4.155867
     652           0     -1408.832275   1408.831787  -28875.00000      4.603697
     653           0     -1408.832275   1408.831787  -29125.00000      5.628032
     654           0     -1408.832275   1408.831787  -29375.00000      6.544957
     655           0     -1408.832275   1408.831787  -29625.00000      9.505987
     656           0     -1408.832275   1408.831787  -29875.00000      8.115482
     657           0     -1491.003296   1326.660645  -26125.00000      6.593651
     658           0     -1491.003296   1326.660645  -26375.00000      6.282741
     659           0     -1491.003296   1326.660645  -26625.00000      5.402691
     660           0     -1491.003296   1326.660645  -26875.00000      5.243742
     661           0     -1491.003296   1326.660645  -27125.00000      4.661296
     662           0     -1491.003296   1326.660645  -27375.00000      4.272157
     663           0     -1491.003296   1326.660645  -27625.00000      3.724439
     664           0     -1491.003296   1326.660645  -27875.00000      3.222346
     665           0     -1491.003296   1326.660645  -28125.00000      2.954669
     666           0     -1491.003296   1326.660645  -28375.00000      3.021493
     667           0     -1491.003296   1326.660645  -28625.00000      3.793380
     668           0     -1491.003296   1326.660645  -28875.00000      4.876929
     669           0     -1491.003296   1326.660645  -29125.00000      6.362158
     670           0     -1491.003296   1326.660645  -29375.00000      7.721340
     671           0     -1491.003296   1326.660645  -29625.00000     10.377041
     672           0     -1491.003296   1326.660645  -29875.00000      9.391925
     673           0     -1565.416016   1237.979126  -26125.00000      2.291373
     674           0     -1565.416016   1237.979126  -26375.00000      1.641918
     675           0     -1565.416016   1237.979126  -26625.00000      1.401779
     676           0     -1565.416016   1237.979126  -26875.00000      2.005053
     677           0     -1565.416016   1237.979126  -27125.00000      2.494045
     678           0     -1565.416016   1237.979126  -27375.00000      3.041390
     679           0     -1565.416016   1237.979126  -27625.00000      3.479311
     680           0     -1565.416016   1237.979126  -27875.00000      3.901440
     681           0     -1565.416016   1237.979126  -28125.00000      4.297404
     682           0     -1565.416016   1237.979126  -28375.00000      4.835566
     683           0     -1565.416016   1237.979126  -28625.00000      5.452829
     684           0     -1565.416016   1237.979126  -28875.00000      6.303412
     685           0     -1565.416016   1237.979126  -29125.00000      7.214752
     686           0     -1565.416016   1237.979126  -29375.00000      8.243806
     687           0     -1565.416016   1237.979126  -29625.00000      9.454849
     688           0     -1565.416016   1237.979126  -29875.00000      9.455226
     689           0     -1632.069946   1142.787354  -26125.00000      5.715682
     690           0     -1632.069946   1142.787354  -26375.00000      7.268360
     691           0     -1632.069946   1142.787354  -26625.00000      7.025696
     692           0     -1632.069946   1142.787354  -26875.00000      7.804092
     693           0     -1632.069946   1142.787354  -27125.00000      8.132410
     694           0     -1632.069946   1142.787354  -27375.00000      8.610899
     695           0     -1632.069946   1142.787354  -27625.00000      8.807360
     696           0     -1632.069946   1142.787354  -27875.00000      8.946181
     697           0     -1632.069946   1142.787354  -28125.00000      8.893272
     698           0     -1632.069946   1142.787354  -28375.00000      8.724440
     699           0     -1632.069946   1142.787354  -28625.00000      8.528494
     700           0     -1632.069946   1142.787354  -28875.00000      8.210969
     701           0     -1632.069946   1142.787354  -29125.00000      8.162596
     702           0     -1632.069946   1142.787354  -29375.00000      7.659189
     703           0     -1632.069946   1142.787354  -29625.00000      8.346256
     704           0     -1632.069946   1142.787354  -29875.00000      7.404220
     705           0     -1698.723877   1047.595581  -26125.00000     13.339784
     706           0     -1698.723877   1047.595581  -26375.00000     13.755600
     707           0     -1698.723877   1047.595581  -26625.00000     12.944934
     708           0     -1698.723877   1047.595581  -26875.00000     12.615443
     709           0     -1698.723877   1047.595581  -27125.00000     12.153389
     710           0     -1698.723877   1047.595581  -27375.00000     11.713472
     711           0     -1698.723877   1047.595581  -27625.00000     11.236795
     712           0     -1698.723877   1047.595581  -27875.00000     10.611447
     713           0     -1698.723877   1047.595581  -28125.00000      9.915961
     714           0     -1698.723877   1047.595581  -28375.00000      9.113081
     715           0     -1698.723877   1047.595581  -28625.00000      8.275767
     716           0     -1698.723877   1047.595581  -28875.00000      7.542319
     717           0     -1698.723877   1047.595581  -29125.00000      6.925119
     718           0     -1698.723877   1047.595581  -29375.00000      6.545712
     719           0     -1698.723877   1047.595581  -29625.00000      6.846378
     720           0     -1698.723877   1047.595581  -29875.00000      6.782497
     721           0     -1756.606689    947.339722  -26125.00000     22.483017
     722           0     -1756.606689    947.339722  -26375.00000     22.983622
     723           0     -1756.606689    947.339722  -26625.00000     21.731201
     724           0     -1756.606689    947.339722  -26875.00000     19.974264
     725           0     -1756.606689    947.339722  -27125.00000     18.977583
     726           0     -1756.606689    947.339722  -27375.00000     17.386320
     727           0     -1756.606689    947.339722  -27625.00000     15.926716
     728           0     -1756.606689    947.339722  -27875.00000     14.232844
     729           0     -1756.606689    947.339722  -28125.00000     12.422302
     730           0     -1756.606689    947.339722  -28375.00000     10.572481
     731           0     -1756.606689    947.339722  -28625.00000      8.576232
     732           0     -1756.606689    947.339722  -28875.00000      6.908732
     733           0     -1756.606689    947.339722  -29125.00000      5.364001
     734           0     -1756.606689    947.339722  -29375.00000      5.089205
     735           0     -1756.606689    947.339722  -29625.00000      6.462753
     736           0     -1756.606689    947.339722  -29875.00000      5.474831
     737           0     -1805.718140    842.019836  -26125.00000     30.756559
     738           0     -1805.718140    842.019836  -26375.00000     35.353058
     739           0     -1805.718140    842.019836  -26625.00000     30.559088
     740           0     -1805.718140    842.019836  -26875.00000     28.767130
     741           0     -1805.718140    842.019836  -27125.00000     26.722414
     742           0     -1805.718140    842.019836  -27375.00000     24.194704
     743           0     -1805.718140    842.019836  -27625.00000     21.755171
     744           0     -1805.718140    842.019836  -27875.00000     18.868544
     745           0     -1805.718140    842.019836  -28125.00000     15.937060
     746           0     -1805.718140    842.019836  -28375.00000     12.508613
     747           0     -1805.718140    842.019836  -28625.00000      9.167077
     748           0     -1805.718140    842.019836  -28875.00000      5.316844
     749           0     -1805.718140    842.019836  -29125.00000      2.563222
     750           0     -1805.718140    842.019836  -29375.00000      3.697143
     751           0     -1805.718140    842.019836  -29625.00000      8.238452
     752           0     -1805.718140    842.019836  -29875.00000      8.677835
     753           0     -1854.829468    736.699951  -26125.00000     43.461605
     754           0     -1854.829468    736.699951  -26375.00000     45.714985
     755           0     -1854.829468    736.699951  -26625.00000     41.032230
     756           0     -1854.829468    736.699951  -26875.00000     39.048157
     757           0     -1854.829468    736.699951  -27125.00000     35.800602
     758           0     -1854.829468    736.699951  -27375.00000     33.111668
     759           0     -1854.829468    736.699951  -27625.00000     29.737963
     760           0     -1854.829468    736.699951  -27875.00000     26.363853
     761           0     -1854.829468    736.699951  -28125.00000     22.282574
     762           0     -1854.829468    736.699951  -28375.00000     18.050211
     763           0     -1854.829468    736.699951  -28625.00000     13.130975
     764           0     -1854.829468    736.699951  -28875.00000      8.491511
     765           0     -1854.829468    736.699951  -29125.00000      4.646101
     766           0     -1854.829468    736.699951  -29375.00000      5.760873
     767           0     -1854.829468    736.699951  -29625.00000     11.668416
     768           0     -1854.829468    736.699951  -29875.00000     14.915606
     769           0     -1894.423584    627.916016  -26125.00000     54.261063
     770           0     -1894.423584    627.916016  -26375.00000     54.664322
     771           0     -1894.423584    627.916016  -26625.00000     49.599239
     772           0     -1894.423584    627.916016  -26875.00000     45.733070
     773           0     -1894.423584    627.916016  -27125.00000     41.957863
     774           0     -1894.423584    627.916016  -27375.00000     38.260826
     775           0     -1894.423584    627.916016  -27625.00000     34.337166
     776           0     -1894.423584    627.916016  -27875.00000     30.402960
     777           0     -1894.423584    627.916016  -28125.00000     26.021055
     778           0     -1894.423584    627.916016  -28375.00000     21.594423
     779           0     -1894.423584    627.916016  -28625.00000     16.895441
     780           0     -1894.423584    627.916016  -28875.00000     12.689703
     781           0     -1894.423584    627.916016  -29125.00000     10.184658
     782           0     -1894.423584    627.916016  -29375.00000     10.365959
     783           0     -1894.423584    627.916016  -29625.00000     14.433025
     784           0     -1894.423584    627.916016  -29875.00000     18.792440
     785           0     -1924.500366    515.667969  -26125.00000     57.367733
     786           0     -1924.500366    515.667969  -26375.00000     64.996498
     787           0     -1924.500366    515.667969  -26625.00000     54.186626
     788           0     -1924.500366    515.667969  -26875.00000     48.921799
     789           0     -1924.500366    515.667969  -27125.00000     44.221737
     790           0     -1924.500366    515.667969  -27375.00000     38.842823
     791           0     -1924.500366    515.667969  -27625.00000     34.482227
     792           0     -1924.500366    515.667969  -27875.00000     29.850092
     793           0     -1924.500366    515.667969  -28125.00000     25.870535
     794           0     -1924.500366    515.667969  -28375.00000     21.857498
     795           0     -1924.500366    515.667969  -28625.00000     18.551437
     796           0     -1924.500366    515.667969  -28875.00000     15.708133
     797           0     -1924.500366    515.667969  -29125.00000     14.376888
     798           0     -1924.500366    515.667969  -29375.00000     14.365040
     799           0     -1924.500366    515.667969  -29625.00000     17.222559
     800           0     -1924.500366    515.667969  -29875.00000     16.660021
     801           0     -1954.577148    403.420013  -26125.00000     69.203056
     802           0     -1954.577148    403.420013  -26375.00000     71.795357
     803           0     -1954.577148    403.420013  -26625.00000     60.114048
     804           0     -1954.577148    403.420013  -26875.00000     54.537964
     805           0     -1954.577148    403.420013  -27125.00000     47.707912
     806           0     -1954.577148    403.420013  -27375.00000     42.342113
     807           0     -1954.577148    403.420013  -27625.00000     37.087921
     808           0     -1954.577148    403.420013  -27875.00000     32.795815
     809           0     -1954.577148    403.420013  -28125.00000     28.981829
     810           0     -1954.577148    403.420013  -28375.00000     25.849682
     811           0     -1954.577148    403.420013  -28625.00000     23.189156
     812           0     -1954.577148    403.420013  -28875.00000     21.153545
     813           0     -1954.577148    403.420013  -29125.00000     19.591944
     814           0     -1954.577148    403.420013  -29375.00000     18.930017
     815           0     -1954.577148    403.420013  -29625.00000     19.916025
     816           0     -1954.577148    403.420013  -29875.00000     16.599764
     817           0     -1974.679565    289.413330  -26125.00000     74.650185
     818           0     -1974.679565    289.413330  -26375.00000     70.317596
     819           0     -1974.679565    289.413330  -26625.00000     59.843220
     820           0     -1974.679565    289.413330  -26875.00000     53.036266
     821           0     -1974.679565    289.413330  -27125.00000     45.099892
     822           0     -1974.679565    289.413330  -27375.00000     39.207287
     823           0     -1974.679565    289.413330  -27625.00000     33.439541
     824           0     -1974.679565    289.413330  -27875.00000     29.484802
     825           0     -1974.679565    289.413330  -28125.00000     26.281166
     826           0     -1974.679565    289.413330  -28375.00000     24.495377
     827           0     -1974.679565    289.413330  -28625.00000     23.299959
     828           0     -1974.679565    289.413330  -28875.00000     22.724970
     829           0     -1974.679565    289.413330  -29125.00000     22.292694
     830           0     -1974.679565    289.413330  -29375.00000     21.693497
     831           0     -1974.679565    289.413330  -29625.00000     20.728849
     832           0     -1974.679565    289.413330  -29875.00000     19.232077
     833           0     -1984.807617    173.647873  -26125.00000     61.328857
     834           0     -1984.807617    173.647873  -26375.00000     66.721077
     835           0     -1984.807617    173.647873  -26625.00000     53.606358
     836           0     -1984.807617    173.647873  -26875.00000     46.457573
     837           0     -1984.807617    173.647873  -27125.00000     39.904324
     838           0     -1984.807617    173.647873  -27375.00000     34.213341
     839           0     -1984.807617    173.647873  -27625.00000     30.624594
     840           0     -1984.807617    173.647873  -27875.00000     28.148605
     841           0     -1984.807617    173.647873  -28125.00000     26.828474
     842           0     -1984.807617    173.647873  -28375.00000     25.847319
     843           0     -1984.807617    173.647873  -28625.00000     25.083656
     844           0     -1984.807617    173.647873  -28875.00000     24.052423
     845           0     -1984.807617    173.647873  -29125.00000     23.189159
     846           0     -1984.807617    173.647873  -29375.00000     21.567593
     847           0     -1984.807617    173.647873  -29625.00000     20.551188
     848           0     -1984.807617    173.647873  -29875.00000     18.050573
     849           0     -1994.935791     57.882427  -26125.00000     55.693188
     850           0     -1994.935791     57.882427  -26375.00000     62.682182
     851           0     -1994.935791     57.882427  -26625.00000     52.163540
     852           0     -1994.935791     57.882427  -26875.00000     46.609310
     853           0     -1994.935791     57.882427  -27125.00000     42.702328
     854           0     -1994.935791     57.882427  -27375.00000     40.559505
     855           0     -1994.935791     57.882427  -27625.00000     40.275414
     856           0     -1994.935791     57.882427  -27875.00000     39.933224
     857           0     -1994.935791     57.882427  -28125.00000     39.194069
     858           0     -1994.935791     57.882427  -28375.00000     37.010246
     859           0     -1994.935791     57.882427  -28625.00000     33.682823
     860           0     -1994.935791     57.882427  -28875.00000     28.950039
     861           0     -1994.935791     57.882427  -29125.00000     23.924139
     862           0     -1994.935791     57.882427  -29375.00000     19.438267
     863           0     -1994.935791     57.882427  -29625.00000     17.565308
     864           0     -1994.935791     57.882427  -29875.00000     16.889257
     865           0     -1997.493652    -50.000221  -26125.00000     51.992435
     866           0     -1997.493652    -50.000221  -26375.00000     54.556335
     867           0     -1997.493652    -50.000221  -26625.00000     53.002148
     868           0     -1997.493652    -50.000221  -26875.00000     52.102486
     869           0     -1997.493652    -50.000221  -27125.00000     51.262936
     870           0     -1997.493652    -50.000221  -27375.00000     51.751778
     871           0     -1997.493652    -50.000221  -27625.00000     51.846630
     872           0     -1997.493652    -50.000221  -27875.00000     51.356480
     873           0     -1997.493652    -50.000221  -28125.00000     49.264359
     874           0     -1997.493652    -50.000221  -28375.00000     45.534931
     875           0     -1997.493652    -50.000221  -28625.00000     39.895313
     876           0     -1997.493652    -50.000221  -28875.00000     32.656876
     877           0     -1997.493652    -50.000221  -29125.00000     24.464104
     878           0     -1997.493652    -50.000221  -29375.00000     16.484076
     879           0     -1997.493652    -50.000221  -29625.00000     13.288779
     880           0     -1997.493652    -50.000221  -29875.00000     13.716169
     881           0     -1992.480957   -150.000076  -26125.00000     41.572712
     882           0     -1992.480957   -150.000076  -26375.00000     52.582825
     883           0     -1992.480957   -150.000076  -26625.00000     55.994576
     884           0     -1992.480957   -150.000076  -26875.00000     59.616905
     885           0     -1992.480957   -150.000076  -27125.00000     60.484154
     886           0     -1992.480957   -150.000076  -27375.00000     60.652092
     887           0     -1992.480957   -150.000076  -27625.00000     59.554459
     888           0     -1992.480957   -150.000076  -27875.00000     57.258183
     889           0     -1992.480957   -150.000076  -28125.00000     53.636566
     890           0     -1992.480957   -150.000076  -28375.00000     48.544846
     891           0     -1992.480957   -150.000076  -28625.00000     42.229458
     892           0     -1992.480957   -150.000076  -28875.00000     34.509876
     893           0     -1992.480957   -150.000076  -29125.00000     26.242830
     894           0     -1992.480957   -150.000076  -29375.00000     17.086535
     895           0     -1992.480957   -150.000076  -29625.00000      9.981672
     896           0     -1992.480957   -150.000076  -29875.00000     10.567635
     897           0     -1979.795044   -273.648315  -26125.00000     41.418350
     898           0     -1979.795044   -273.648315  -26375.00000     48.678139
     899           0     -1979.795044   -273.648315  -26625.00000     51.306095
     900           0     -1979.795044   -273.648315  -26875.00000     53.667103
     901           0     -1979.795044   -273.648315  -27125.00000     55.139225
     902           0     -1979.795044   -273.648315  -27375.00000     56.206486
     903           0     -1979.795044   -273.648315  -27625.00000     56.174694
     904           0     -1979.795044   -273.648315  -27875.00000     54.980888
     905           0     -1979.795044   -273.648315  -28125.00000     52.166039
     906           0     -1979.795044   -273.648315  -28375.00000     47.706097
     907           0     -1979.795044   -273.648315  -28625.00000     41.653255
     908           0     -1979.795044   -273.648315  -28875.00000     34.030697
     909           0     -1979.795044   -273.648315  -29125.00000     25.611589
     910           0     -1979.795044   -273.648315  -29375.00000     16.585058
     911           0     -1979.795044   -273.648315  -29625.00000     10.457230
     912           0     -1979.795044   -273.648315  -29875.00000     11.332802
     913           0     -1954.577026   -403.420563  -26125.00000     48.207626
     914           0     -1954.577026   -403.420563  -26375.00000     55.529278
     915           0     -1954.577026   -403.420563  -26625.00000     47.688530
     916           0     -1954.577026   -403.420563  -26875.00000     45.008137
     917           0     -1954.577026   -403.420563  -27125.00000     43.820709
     918           0     -1954.577026   -403.420563  -27375.00000     43.913528
     919           0     -1954.577026   -403.420563  -27625.00000     44.795105
     920           0     -1954.577026   -403.420563  -27875.00000     44.859783
     921           0     -1954.577026   -403.420563  -28125.00000     43.834183
     922           0     -1954.577026   -403.420563  -28375.00000     40.991123
     923           0     -1954.577026   -403.420563  -28625.00000     36.586246
     924           0     -1954.577026   -403.420563  -28875.00000     30.500381
     925           0     -1954.577026   -403.420563  -29125.00000     23.828619
     926           0     -1954.577026   -403.420563  -29375.00000     17.723894
     927           0     -1954.577026   -403.420563  -29625.00000     15.223879
     928           0     -1954.577026   -403.420563  -29875.00000     14.855119
     929           0     -1924.500244   -515.668518  -26125.00000     56.609013
     930           0     -1924.500244   -515.668518  -26375.00000     61.495987
     931           0     -1924.500244   -515.668518  -26625.00000     49.320698
     932           0     -1924.500244   -515.668518  -26875.00000     43.782703
     933           0     -1924.500244   -515.668518  -27125.00000     38.398071
     934           0     -1924.500244   -515.668518  -27375.00000     34.270283
     935           0     -1924.500244   -515.668518  -27625.00000     31.854546
     936           0     -1924.500244   -515.668518  -27875.00000     30.142017
     937           0     -1924.500244   -515.668518  -28125.00000     28.962908
     938           0     -1924.500244   -515.668518  -28375.00000     27.581882
     939           0     -1924.500244   -515.668518  -28625.00000     25.994183
     940           0     -1924.500244   -515.668518  -28875.00000     23.961658
     941           0     -1924.500244   -515.668518  -29125.00000     22.058035
     942           0     -1924.500244   -515.668518  -29375.00000     19.975788
     943           0     -1924.500244   -515.668518  -29625.00000     18.657425
     944           0     -1924.500244   -515.668518  -29875.00000     16.488241
     945           0     -1894.423340   -627.916504  -26125.00000     72.384041
     946           0     -1894.423340   -627.916504  -26375.00000     68.099693
     947           0     -1894.423340   -627.916504  -26625.00000     57.508785
     948           0     -1894.423340   -627.916504  -26875.00000     50.528297
     949           0     -1894.423340   -627.916504  -27125.00000     42.364010
     950           0     -1894.423340   -627.916504  -27375.00000     36.207127
     951           0     -1894.423340   -627.916504  -27625.00000     30.367853
     952           0     -1894.423340   -627.916504  -27875.00000     26.478203
     953           0     -1894.423340   -627.916504  -28125.00000     23.553064
     954           0     -1894.423340   -627.916504  -28375.00000     22.125643
     955           0     -1894.423340   -627.916504  -28625.00000     21.310730
     956           0     -1894.423340   -627.916504  -28875.00000     20.986450
     957           0     -1894.423340   -627.916504  -29125.00000     20.775965
     958           0     -1894.423340   -627.916504  -29375.00000     20.209494
     959           0     -1894.423340   -627.916504  -29625.00000     19.246574
     960           0     -1894.423340   -627.916504  -29875.00000     17.652824
     961           0     -1854.829224   -736.700439  -26125.00000     69.175285
     962           0     -1854.829224   -736.700439  -26375.00000     71.736267
     963           0     -1854.829224   -736.700439  -26625.00000     59.418728
     964           0     -1854.829224   -736.700439  -26875.00000     53.147736
     965           0     -1854.829224   -736.700439  -27125.00000     45.681416
     966           0     -1854.829224   -736.700439  -27375.00000     39.683674
     967           0     -1854.829224   -736.700439  -27625.00000     34.039864
     968           0     -1854.829224   -736.700439  -27875.00000     29.635073
     969           0     -1854.829224   -736.700439  -28125.00000     26.081554
     970           0     -1854.829224   -736.700439  -28375.00000     23.520102
     971           0     -1854.829224   -736.700439  -28625.00000     21.610903
     972           0     -1854.829224   -736.700439  -28875.00000     20.315733
     973           0     -1854.829224   -736.700439  -29125.00000     19.186716
     974           0     -1854.829224   -736.700439  -29375.00000     18.599371
     975           0     -1854.829224   -736.700439  -29625.00000     19.014114
     976           0     -1854.829224   -736.700439  -29875.00000     15.422483
     977           0     -1805.717773   -842.020264  -26125.00000     58.446697
     978           0     -1805.717773   -842.020264  -26375.00000     65.915184
     979           0     -1805.717773   -842.020264  -26625.00000     54.210609
     980           0     -1805.717773   -842.020264  -26875.00000     48.477825
     981           0     -1805.717773   -842.020264  -27125.00000     43.144096
     982           0     -1805.717773   -842.020264  -27375.00000     37.307358
     983           0     -1805.717773   -842.020264  -27625.00000     32.591938
     984           0     -1805.717773   -842.020264  -27875.00000     27.820467
     985           0     -1805.717773   -842.020264  -28125.00000     23.943521
     986           0     -1805.717773   -842.020264  -28375.00000     20.287598
     987           0     -1805.717773   -842.020264  -28625.00000     17.581337
     988           0     -1805.717773   -842.020264  -28875.00000     15.444900
     989           0     -1805.717773   -842.020264  -29125.00000     14.697881
     990           0     -1805.717773   -842.020264  -29375.00000     14.847518
     991           0     -1805.717773   -842.020264  -29625.00000     17.328255
     992           0     -1805.717773   -842.020264  -29875.00000     16.565861
     993           0     -1756.606201   -947.340210  -26125.00000     56.517124
     994           0     -1756.606201   -947.340210  -26375.00000     57.061111
     995           0     -1756.606201   -947.340210  -26625.00000     51.230934
     996           0     -1756.606201   -947.340210  -26875.00000     47.009090
     997           0     -1756.606201   -947.340210  -27125.00000     42.867023
     998           0     -1756.606201   -947.340210  -27375.00000     38.920647
     999           0     -1756.606201   -947.340210  -27625.00000     34.825829
    1000           0     -1756.606201   -947.340210  -27875.00000     30.805899
    1001           0     -1756.606201   -947.340210  -28125.00000     26.419254
    1002           0     -1756.606201   -947.340210  -28375.00000     22.066162
    1003           0     -1756.606201   -947.340210  -28625.00000     17.558357
    1004           0     -1756.606201   -947.340210  -28875.00000     13.621545
    1005           0     -1756.606201   -947.340210  -29125.00000     11.510942
    1006           0     -1756.606201   -947.340210  -29375.00000     11.617736
    1007           0     -1756.606201   -947.340210  -29625.00000     15.388055
    1008           0     -1756.606201   -947.340210  -29875.00000     19.474972
    1009           0     -1698.723511  -1047.595947  -26125.00000     46.355659
    1010           0     -1698.723511  -1047.595947  -26375.00000     48.624645
    1011           0     -1698.723511  -1047.595947  -26625.00000     43.314381
    1012           0     -1698.723511  -1047.595947  -26875.00000     41.014042
    1013           0     -1698.723511  -1047.595947  -27125.00000     37.475639
    1014           0     -1698.723511  -1047.595947  -27375.00000     34.578278
    1015           0     -1698.723511  -1047.595947  -27625.00000     31.028500
    1016           0     -1698.723511  -1047.595947  -27875.00000     27.513735
    1017           0     -1698.723511  -1047.595947  -28125.00000     23.297844
    1018           0     -1698.723511  -1047.595947  -28375.00000     18.941277
    1019           0     -1698.723511  -1047.595947  -28625.00000     13.957301
    1020           0     -1698.723511  -1047.595947  -28875.00000      9.393104
    1021           0     -1698.723511  -1047.595947  -29125.00000      6.201830
    1022           0     -1698.723511  -1047.595947  -29375.00000      7.401374
    1023           0     -1698.723511  -1047.595947  -29625.00000     13.123626
    1024           0     -1698.723511  -1047.595947  -29875.00000     16.159063
    1025           0     -1632.069580  -1142.787720  -26125.00000     33.126316
    1026           0     -1632.069580  -1142.787720  -26375.00000     38.037945
    1027           0     -1632.069580  -1142.787720  -26625.00000     32.437405
    1028           0     -1632.069580  -1142.787720  -26875.00000     30.433069
    1029           0     -1632.069580  -1142.787720  -27125.00000     28.037029
    1030           0     -1632.069580  -1142.787720  -27375.00000     25.215368
    1031           0     -1632.069580  -1142.787720  -27625.00000     22.483154
    1032           0     -1632.069580  -1142.787720  -27875.00000     19.295710
    1033           0     -1632.069580  -1142.787720  -28125.00000     16.070719
    1034           0     -1632.069580  -1142.787720  -28375.00000     12.296669
    1035           0     -1632.069580  -1142.787720  -28625.00000      8.637977
    1036           0     -1632.069580  -1142.787720  -28875.00000      4.417575
    1037           0     -1632.069580  -1142.787720  -29125.00000      1.994048
    1038           0     -1632.069580  -1142.787720  -29375.00000      4.995035
    1039           0     -1632.069580  -1142.787720  -29625.00000      9.962318
    1040           0     -1632.069580  -1142.787720  -29875.00000     10.397043
    1041           0     -1565.415527  -1237.979370  -26125.00000     24.497227
    1042           0     -1565.415527  -1237.979370  -26375.00000     25.581751
    1043           0     -1565.415527  -1237.979370  -26625.00000     23.850842
    1044           0     -1565.415527  -1237.979370  -26875.00000     21.877401
    1045           0     -1565.415527  -1237.979370  -27125.00000     20.661942
    1046           0     -1565.415527  -1237.979370  -27375.00000     18.810051
    1047           0     -1565.415527  -1237.979370  -27625.00000     17.085043
    1048           0     -1565.415527  -1237.979370  -27875.00000     15.118277
    1049           0     -1565.415527  -1237.979370  -28125.00000     12.990105
    1050           0     -1565.415527  -1237.979370  -28375.00000     10.866652
    1051           0     -1565.415527  -1237.979370  -28625.00000      8.545811
    1052           0     -1565.415527  -1237.979370  -28875.00000      6.778228
    1053           0     -1565.415527  -1237.979370  -29125.00000      5.305401
    1054           0     -1565.415527  -1237.979370  -29375.00000      5.684319
    1055           0     -1565.415527  -1237.979370  -29625.00000      7.899624
    1056           0     -1565.415527  -1237.979370  -29875.00000      7.633336
    1057           0     -1491.003052  -1326.660889  -26125.00000     15.133513
    1058           0     -1491.003052  -1326.660889  -26375.00000     15.712090
    1059           0     -1491.003052  -1326.660889  -26625.00000     14.660962
    1060           0     -1491.003052  -1326.660889  -26875.00000     14.115123
    1061           0     -1491.003052  -1326.660889  -27125.00000     13.443542
    1062           0     -1491.003052  -1326.660889  -27375.00000     12.764426
    1063           0     -1491.003052  -1326.660889  -27625.00000     12.065167
    1064           0     -1491.003052  -1326.660889  -27875.00000     11.218499
    1065           0     -1491.003052  -1326.660889  -28125.00000     10.322217
    1066           0     -1491.003052  -1326.660889  -28375.00000      9.351489
    1067           0     -1491.003052  -1326.660889  -28625.00000      8.400050
    1068           0     -1491.003052  -1326.660889  -28875.00000      7.608843
    1069           0     -1491.003052  -1326.660889  -29125.00000      7.133638
    1070           0     -1491.003052  -1326.660889  -29375.00000      6.889088
    1071           0     -1491.003052  -1326.660889  -29625.00000      7.533551
    1072           0     -1491.003052  -1326.660889  -29875.00000      8.435573
    1073           0     -1408.831787  -1408.832275  -26125.00000      6.712918
    1074           0     -1408.831787  -1408.832275  -26375.00000      8.560776
    1075           0     -1408.831787  -1408.832275  -26625.00000      7.901176
    1076           0     -1408.831787  -1408.832275  -26875.00000      8.781504
    1077           0     -1408.831787  -1408.832275  -27125.00000      9.002552
    1078           0     -1408.831787  -1408.832275  -27375.00000      9.472352
    1079           0     -1408.831787  -1408.832275  -27625.00000      9.637397
    1080           0     -1408.831787  -1408.832275  -27875.00000      9.762448
    1081           0     -1408.831787  -1408.832275  -28125.00000      9.704522
    1082           0     -1408.831787  -1408.832275  -28375.00000      9.511455
    1083           0     -1408.831787  -1408.832275  -28625.00000      9.305511
    1084           0     -1408.831787  -1408.832275  -28875.00000      8.931790
    1085           0     -1408.831787  -1408.832275  -29125.00000      8.833838
    1086           0     -1408.831787  -1408.832275  -29375.00000      8.264761
    1087           0     -1408.831787  -1408.832275  -29625.00000      8.760382
    1088           0     -1408.831787  -1408.832275  -29875.00000      7.869881
    1089           0     -1326.660645  -1491.003296  -26125.00000      1.194244
    1090           0     -1326.660645  -1491.003296  -26375.00000      1.269552
    1091           0     -1326.660645  -1491.003296  -26625.00000      1.107406
    1092           0     -1326.660645  -1491.003296  -26875.00000      2.337741
    1093           0     -1326.660645  -1491.003296  -27125.00000      3.150588
    1094           0     -1326.660645  -1491.003296  -27375.00000      3.958116
    1095           0     -1326.660645  -1491.003296  -27625.00000      4.529712
    1096           0     -1326.660645  -1491.003296  -27875.00000      5.092339
    1097           0     -1326.660645  -1491.003296  -28125.00000      5.484820
    1098           0     -1326.660645  -1491.003296  -28375.00000      6.002369
    1099           0     -1326.660645  -1491.003296  -28625.00000      6.436948
    1100           0     -1326.660645  -1491.003296  -28875.00000      7.136654
    1101           0     -1326.660645  -1491.003296  -29125.00000      7.719151
    1102           0     -1326.660645  -1491.003296  -29375.00000      8.579020
    1103           0     -1326.660645  -1491.003296  -29625.00000      9.393269
    1104           0     -1326.660645  -1491.003296  -29875.00000      8.951225
    1105           0     -1237.979126  -1565.416016  -26125.00000      5.944892
    1106           0     -1237.979126  -1565.416016  -26375.00000      6.164838
    1107           0     -1237.979126  -1565.416016  -26625.00000      5.436427
    1108           0     -1237.979126  -1565.416016  -26875.00000      5.444625
    1109           0     -1237.979126  -1565.416016  -27125.00000      5.238590
    1110           0     -1237.979126  -1565.416016  -27375.00000      5.082091
    1111           0     -1237.979126  -1565.416016  -27625.00000      4.896205
    1112           0     -1237.979126  -1565.416016  -27875.00000      4.622191
    1113           0     -1237.979126  -1565.416016  -28125.00000      4.535422
    1114           0     -1237.979126  -1565.416016  -28375.00000      4.500992
    1115           0     -1237.979126  -1565.416016  -28625.00000      4.968497
    1116           0     -1237.979126  -1565.416016  -28875.00000      5.649366
    1117           0     -1237.979126  -1565.416016  -29125.00000      6.794143
    1118           0     -1237.979126  -1565.416016  -29375.00000      7.864027
    1119           0     -1237.979126  -1565.416016  -29625.00000     10.279200
    1120           0     -1237.979126  -1565.416016  -29875.00000      9.069977
    1121           0     -1142.787354  -1632.069946  -26125.00000      8.195621
    1122           0     -1142.787354  -1632.069946  -26375.00000     10.071018
    1123           0     -1142.787354  -1632.069946  -26625.00000      9.670205
    1124           0     -1142.787354  -1632.069946  -26875.00000      9.069542
    1125           0     -1142.787354  -1632.069946  -27125.00000      8.949301
    1126           0     -1142.787354  -1632.069946  -27375.00000      8.286846
    1127           0     -1142.787354  -1632.069946  -27625.00000      7.838001
    1128           0     -1142.787354  -1632.069946  -27875.00000      7.138336
    1129           0     -1142.787354  -1632.069946  -28125.00000      6.527174
    1130           0     -1142.787354  -1632.069946  -28375.00000      5.964128
    1131           0     -1142.787354  -1632.069946  -28625.00000      5.620611
    1132           0     -1142.787354  -1632.069946  -28875.00000      5.655898
    1133           0     -1142.787354  -1632.069946  -29125.00000      6.216004
    1134           0     -1142.787354  -1632.069946  -29375.00000      6.772558
    1135           0     -1142.787354  -1632.069946  -29625.00000      9.357456
    1136           0     -1142.787354  -1632.069946  -29875.00000      7.990883
    1137           0     -1047.595581  -1698.723877  -26125.00000     11.024974
    1138           0     -1047.595581  -1698.723877  -26375.00000     10.922104
    1139           0     -1047.595581  -1698.723877  -26625.00000      9.393684
    1140           0     -1047.595581  -1698.723877  -26875.00000      9.012320
    1141           0     -1047.595581  -1698.723877  -27125.00000      7.653439
    1142           0     -1047.595581  -1698.723877  -27375.00000      6.859301
    1143           0     -1047.595581  -1698.723877  -27625.00000      5.563466
    1144           0     -1047.595581  -1698.723877  -27875.00000      4.551978
    1145           0     -1047.595581  -1698.723877  -28125.00000      3.366645
    1146           0     -1047.595581  -1698.723877  -28375.00000      2.653836
    1147           0     -1047.595581  -1698.723877  -28625.00000      2.569726
    1148           0     -1047.595581  -1698.723877  -28875.00000      3.563699
    1149           0     -1047.595581  -1698.723877  -29125.00000      4.837379
    1150           0     -1047.595581  -1698.723877  -29375.00000      6.612953
    1151           0     -1047.595581  -1698.723877  -29625.00000      8.536798
    1152           0     -1047.595581  -1698.723877  -29875.00000      8.829361
    1153           0      -947.339722  -1756.606689  -26125.00000     11.198945
    1154           0      -947.339722  -1756.606689  -26375.00000     11.035512
    1155           0      -947.339722  -1756.606689  -26625.00000      9.607750
    1156           0      -947.339722  -1756.606689  -26875.00000      9.175679
    1157           0      -947.339722  -1756.606689  -27125.00000      7.869329
    1158           0      -947.339722  -1756.606689  -27375.00000      7.069579
    1159           0      -947.339722  -1756.606689  -27625.00000      5.834350
    1160           0      -947.339722  -1756.606689  -27875.00000      4.825191
    1161           0      -947.339722  -1756.606689  -28125.00000      3.677791
    1162           0      -947.339722  -1756.606689  -28375.00000      2.780219
    1163           0      -947.339722  -1756.606689  -28625.00000      2.397439
    1164           0      -947.339722  -1756.606689  -28875.00000      2.882329
    1165           0      -947.339722  -1756.606689  -29125.00000      4.045841
    1166           0      -947.339722  -1756.606689  -29375.00000      5.400753
    1167           0      -947.339722  -1756.606689  -29625.00000      7.723519
    1168           0      -947.339722  -1756.606689  -29875.00000      7.208920
    1169           0      -842.019836  -1805.718140  -26125.00000      8.646053
    1170           0      -842.019836  -1805.718140  -26375.00000     10.008705
    1171           0      -842.019836  -1805.718140  -26625.00000      9.326133
    1172           0      -842.019836  -1805.718140  -26875.00000      8.198090
    1173           0      -842.019836  -1805.718140  -27125.00000      7.757788
    1174           0      -842.019836  -1805.718140  -27375.00000      6.690051
    1175           0      -842.019836  -1805.718140  -27625.00000      5.988840
    1176           0      -842.019836  -1805.718140  -27875.00000      5.022019
    1177           0      -842.019836  -1805.718140  -28125.00000      4.209527
    1178           0      -842.019836  -1805.718140  -28375.00000      3.429658
    1179           0      -842.019836  -1805.718140  -28625.00000      2.840202
    1180           0      -842.019836  -1805.718140  -28875.00000      2.678241
    1181           0      -842.019836  -1805.718140  -29125.00000      3.130028
    1182           0      -842.019836  -1805.718140  -29375.00000      3.505653
    1183           0      -842.019836  -1805.718140  -29625.00000      5.986656
    1184           0      -842.019836  -1805.718140  -29875.00000      4.198089
    1185           0      -736.699951  -1854.829468  -26125.00000      6.879985
    1186           0      -736.699951  -1854.829468  -26375.00000      7.226588
    1187           0      -736.699951  -1854.829468  -26625.00000      6.525793
    1188           0      -736.699951  -1854.829468  -26875.00000      6.302101
    1189           0      -736.699951  -1854.829468  -27125.00000      5.814933
    1190           0      -736.699951  -1854.829468  -27375.00000      5.467616
    1191           0      -736.699951  -1854.829468  -27625.00000      5.040073
    1192           0      -736.699951  -1854.829468  -27875.00000      4.638199
    1193           0      -736.699951  -1854.829468  -28125.00000      4.294359
    1194           0      -736.699951  -1854.829468  -28375.00000      3.918830
    1195           0      -736.699951  -1854.829468  -28625.00000      3.743547
    1196           0      -736.699951  -1854.829468  -28875.00000      3.608983
    1197           0      -736.699951  -1854.829468  -29125.00000      3.688029
    1198           0      -736.699951  -1854.829468  -29375.00000      4.081596
    1199           0      -736.699951  -1854.829468  -29625.00000      4.942526
    1200           0      -736.699951  -1854.829468  -29875.00000      3.498369
    1201           0      -627.916016  -1894.423584  -26125.00000      5.180197
    1202           0      -627.916016  -1894.423584  -26375.00000      5.095458
    1203           0      -627.916016  -1894.423584  -26625.00000      4.743683
    1204           0      -627.916016  -1894.423584  -26875.00000      5.064337
    1205           0      -627.916016  -1894.423584  -27125.00000      4.724071
    1206           0      -627.916016  -1894.423584  -27375.00000      4.812856
    1207           0      -627.916016  -1894.423584  -27625.00000      4.555185
    1208           0      -627.916016  -1894.423584  -27875.00000      4.483201
    1209           0      -627.916016  -1894.423584  -28125.00000      4.229869
    1210           0      -627.916016  -1894.423584  -28375.00000      4.080753
    1211           0      -627.916016  -1894.423584  -28625.00000      3.817275
    1212           0      -627.916016  -1894.423584  -28875.00000      3.710035
    1213           0      -627.916016  -1894.423584  -29125.00000      3.446127
    1214           0      -627.916016  -1894.423584  -29375.00000      3.583202
    1215           0      -627.916016  -1894.423584  -29625.00000      3.664201
    1216           0      -627.916016  -1894.423584  -29875.00000      2.231567
    1217           0      -515.667969  -1924.500366  -26125.00000      2.401810
    1218           0      -515.667969  -1924.500366  -26375.00000      3.661975
    1219           0      -515.667969  -1924.500366  -26625.00000      3.445654
    1220           0      -515.667969  -1924.500366  -26875.00000      3.322505
    1221           0      -515.667969  -1924.500366  -27125.00000      3.358561
    1222           0      -515.667969  -1924.500366  -27375.00000      3.285806
    1223           0      -515.667969  -1924.500366  -27625.00000      3.316288
    1224           0      -515.667969  -1924.500366  -27875.00000      3.298925
    1225           0      -515.667969  -1924.500366  -28125.00000      3.305257
    1226           0      -515.667969  -1924.500366  -28375.00000      3.330726
    1227           0      -515.667969  -1924.500366  -28625.00000      3.310986
    1228           0      -515.667969  -1924.500366  -28875.00000      3.362360
    1229           0      -515.667969  -1924.500366  -29125.00000      3.329554
    1230           0      -515.667969  -1924.500366  -29375.00000      3.323095
    1231           0      -515.667969  -1924.500366  -29625.00000      3.649420
    1232           0      -515.667969  -1924.500366  -29875.00000      1.982137
    1233           0      -403.420013  -1954.577148  -26125.00000      3.349991
    1234           0      -403.420013  -1954.577148  -26375.00000      5.163950
    1235           0      -403.420013  -1954.577148  -26625.00000      4.974120
    1236           0      -403.420013  -1954.577148  -26875.00000      4.728933
    1237           0      -403.420013  -1954.577148  -27125.00000      4.781456
    1238           0      -403.420013  -1954.577148  -27375.00000      4.569334
    1239           0      -403.420013  -1954.577148  -27625.00000      4.520662
    1240           0      -403.420013  -1954.577148  -27875.00000      4.325493
    1241           0      -403.420013  -1954.577148  -28125.00000      4.242671
    1242           0      -403.420013  -1954.577148  -28375.00000      4.034132
    1243           0      -403.420013  -1954.577148  -28625.00000      3.980335
    1244           0      -403.420013  -1954.577148  -28875.00000      3.735290
    1245           0      -403.420013  -1954.577148  -29125.00000      3.774564
    1246           0      -403.420013  -1954.577148  -29375.00000      3.468496
    1247           0      -403.420013  -1954.577148  -29625.00000      3.699253
    1248           0      -403.420013  -1954.577148  -29875.00000      3.003733
    1249           0      -289.413330  -1974.679565  -26125.00000      5.340086
    1250           0      -289.413330  -1974.679565  -26375.00000      7.135742
    1251           0      -289.413330  -1974.679565  -26625.00000      6.125659
    1252           0      -289.413330  -1974.679565  -26875.00000      5.667548
    1253           0      -289.413330  -1974.679565  -27125.00000      5.326038
    1254           0      -289.413330  -1974.679565  -27375.00000      4.919876
    1255           0      -289.413330  -1974.679565  -27625.00000      4.553432
    1256           0      -289.413330  -1974.679565  -27875.00000      4.267204
    1257           0      -289.413330  -1974.679565  -28125.00000      3.955256
    1258           0      -289.413330  -1974.679565  -28375.00000      3.793826
    1259           0      -289.413330  -1974.679565  -28625.00000      3.607088
    1260           0      -289.413330  -1974.679565  -28875.00000      3.574866
    1261           0      -289.413330  -1974.679565  -29125.00000      3.549288
    1262           0      -289.413330  -1974.679565  -29375.00000      3.616205
    1263           0      -289.413330  -1974.679565  -29625.00000      3.752881
    1264           0      -289.413330  -1974.679565  -29875.00000      3.233588
    1265           0      -173.647873  -1984.807617  -26125.00000      5.852643
    1266           0      -173.647873  -1984.807617  -26375.00000      7.626841
    1267           0      -173.647873  -1984.807617  -26625.00000      5.166755
    1268           0      -173.647873  -1984.807617  -26875.00000      4.953782
    1269           0      -173.647873  -1984.807617  -27125.00000      4.023395
    1270           0      -173.647873  -1984.807617  -27375.00000      3.519239
    1271           0      -173.647873  -1984.807617  -27625.00000      3.000782
    1272           0      -173.647873  -1984.807617  -27875.00000      2.718298
    1273           0      -173.647873  -1984.807617  -28125.00000      2.648520
    1274           0      -173.647873  -1984.807617  -28375.00000      2.786476
    1275           0      -173.647873  -1984.807617  -28625.00000      3.036032
    1276           0      -173.647873  -1984.807617  -28875.00000      3.530354
    1277           0      -173.647873  -1984.807617  -29125.00000      3.779758
    1278           0      -173.647873  -1984.807617  -29375.00000      4.523648
    1279           0      -173.647873  -1984.807617  -29625.00000      4.773829
    1280           0      -173.647873  -1984.807617  -29875.00000      4.090206
    1281           0       -57.882427  -1994.935791  -26125.00000      8.149676
    1282           0       -57.882427  -1994.935791  -26375.00000      9.561439
    1283           0       -57.882427  -1994.935791  -26625.00000      8.153032
    1284           0       -57.882427  -1994.935791  -26875.00000      7.277360
    1285           0       -57.882427  -1994.935791  -27125.00000      6.531281
    1286           0       -57.882427  -1994.935791  -27375.00000      5.705501
    1287           0       -57.882427  -1994.935791  -27625.00000      5.022231
    1288           0       -57.882427  -1994.935791  -27875.00000      4.391639
    1289           0       -57.882427  -1994.935791  -28125.00000      3.888120
    1290           0       -57.882427  -1994.935791  -28375.00000      3.536587
    1291           0       -57.882427  -1994.935791  -28625.00000      3.399997
    1292           0       -57.882427  -1994.935791  -28875.00000      3.355647
    1293           0       -57.882427  -1994.935791  -29125.00000      3.690165
    1294           0       -57.882427  -1994.935791  -29375.00000      3.793223
    1295           0       -57.882427  -1994.935791  -29625.00000      4.390875
    1296           0       -57.882427  -1994.935791  -29875.00000      4.577038
    1297           0        57.883011  -1994.935791  -26125.00000      8.123782
    1298           0        57.883011  -1994.935791  -26375.00000      9.519261
    1299           0        57.883011  -1994.935791  -26625.00000      8.145111
    1300           0        57.883011  -1994.935791  -26875.00000      7.262651
    1301           0        57.883011  -1994.935791  -27125.00000      6.529124
    1302           0        57.883011  -1994.935791  -27375.00000      5.703610
    1303           0        57.883011  -1994.935791  -27625.00000      5.032945
    1304           0        57.883011  -1994.935791  -27875.00000      4.402309
    1305           0        57.883011  -1994.935791  -28125.00000      3.913919
    1306           0        57.883011  -1994.935791  -28375.00000      3.557651
    1307           0        57.883011  -1994.935791  -28625.00000      3.437917
    1308           0        57.883011  -1994.935791  -28875.00000      3.377183
    1309           0        57.883011  -1994.935791  -29125.00000      3.729692
    1310           0        57.883011  -1994.935791  -29375.00000      3.806207
    1311           0        57.883011  -1994.935791  -29625.00000      4.417309
    1312           0        57.883011  -1994.935791  -29875.00000      4.655901
    1313           0       173.648453  -1984.807617  -26125.00000      5.787588
    1314           0       173.648453  -1984.807617  -26375.00000      7.569450
    1315           0       173.648453  -1984.807617  -26625.00000      5.140678
    1316           0       173.648453  -1984.807617  -26875.00000      4.943434
    1317           0       173.648453  -1984.807617  -27125.00000      4.039388
    1318           0       173.648453  -1984.807617  -27375.00000      3.560936
    1319           0       173.648453  -1984.807617  -27625.00000      3.072999
    1320           0       173.648453  -1984.807617  -27875.00000      2.816861
    1321           0       173.648453  -1984.807617  -28125.00000      2.761999
    1322           0       173.648453  -1984.807617  -28375.00000      2.902893
    1323           0       173.648453  -1984.807617  -28625.00000      3.143598
    1324           0       173.648453  -1984.807617  -28875.00000      3.621390
    1325           0       173.648453  -1984.807617  -29125.00000      3.859307
    1326           0       173.648453  -1984.807617  -29375.00000      4.579945
    1327           0       173.648453  -1984.807617  -29625.00000      4.821050
    1328           0       173.648453  -1984.807617  -29875.00000      4.136147
    1329           0       289.413879  -1974.679443  -26125.00000      5.259113
    1330           0       289.413879  -1974.679443  -26375.00000      7.069907
    1331           0       289.413879  -1974.679443  -26625.00000      6.061527
    1332           0       289.413879  -1974.679443  -26875.00000      5.645355
    1333           0       289.413879  -1974.679443  -27125.00000      5.317831
    1334           0       289.413879  -1974.679443  -27375.00000      4.946413
    1335           0       289.413879  -1974.679443  -27625.00000      4.596168
    1336           0       289.413879  -1974.679443  -27875.00000      4.339560
    1337           0       289.413879  -1974.679443  -28125.00000      4.040715
    1338           0       289.413879  -1974.679443  -28375.00000      3.901831
    1339           0       289.413879  -1974.679443  -28625.00000      3.715646
    1340           0       289.413879  -1974.679443  -28875.00000      3.698522
    1341           0       289.413879  -1974.679443  -29125.00000      3.649982
    1342           0       289.413879  -1974.679443  -29375.00000      3.729627
    1343           0       289.413879  -1974.679443  -29625.00000      3.828094
    1344           0       289.413879  -1974.679443  -29875.00000      3.224091
    1345           0       403.420563  -1954.577026  -26125.00000      3.236954
    1346           0       403.420563  -1954.577026  -26375.00000      5.089180
    1347           0       403.420563  -1954.577026  -26625.00000      4.968549
    1348           0       403.420563  -1954.577026  -26875.00000      4.736559
    1349           0       403.420563  -1954.577026  -27125.00000      4.824121
    1350           0       403.420563  -1954.577026  -27375.00000      4.627255
    1351           0       403.420563  -1954.577026  -27625.00000      4.603334
    1352           0       403.420563  -1954.577026  -27875.00000      4.417940
    1353           0       403.420563  -1954.577026  -28125.00000      4.354407
    1354           0       403.420563  -1954.577026  -28375.00000      4.147738
    1355           0       403.420563  -1954.577026  -28625.00000      4.108523
    1356           0       403.420563  -1954.577026  -28875.00000      3.855514
    1357           0       403.420563  -1954.577026  -29125.00000      3.904609
    1358           0       403.420563  -1954.577026  -29375.00000      3.577835
    1359           0       403.420563  -1954.577026  -29625.00000      3.823680
    1360           0       403.420563  -1954.577026  -29875.00000      3.141266
    1361           0       515.668518  -1924.500244  -26125.00000      2.748152
    1362           0       515.668518  -1924.500244  -26375.00000      3.885206
    1363           0       515.668518  -1924.500244  -26625.00000      3.725666
    1364           0       515.668518  -1924.500244  -26875.00000      3.587015
    1365           0       515.668518  -1924.500244  -27125.00000      3.629763
    1366           0       515.668518  -1924.500244  -27375.00000      3.544169
    1367           0       515.668518  -1924.500244  -27625.00000      3.566834
    1368           0       515.668518  -1924.500244  -27875.00000      3.535010
    1369           0       515.668518  -1924.500244  -28125.00000      3.525820
    1370           0       515.668518  -1924.500244  -28375.00000      3.534236
    1371           0       515.668518  -1924.500244  -28625.00000      3.495340
    1372           0       515.668518  -1924.500244  -28875.00000      3.526536
    1373           0       515.668518  -1924.500244  -29125.00000      3.476732
    1374           0       515.668518  -1924.500244  -29375.00000      3.444714
    1375           0       515.668518  -1924.500244  -29625.00000      3.758775
    1376           0       515.668518  -1924.500244  -29875.00000      2.139715
    1377           0       627.916504  -1894.423340  -26125.00000      5.591353
    1378           0       627.916504  -1894.423340  -26375.00000      5.431138
    1379           0       627.916504  -1894.423340  -26625.00000      5.040147
    1380           0       627.916504  -1894.423340  -26875.00000      5.339405
    1381           0       627.916504  -1894.423340  -27125.00000      4.953209
    1382           0       627.916504  -1894.423340  -27375.00000      5.022474
    1383           0       627.916504  -1894.423340  -27625.00000      4.729981
    1384           0       627.916504  -1894.423340  -27875.00000      4.640502
    1385           0       627.916504  -1894.423340  -28125.00000      4.361376
    1386           0       627.916504  -1894.423340  -28375.00000      4.199995
    1387           0       627.916504  -1894.423340  -28625.00000      3.917304
    1388           0       627.916504  -1894.423340  -28875.00000      3.806475
    1389           0       627.916504  -1894.423340  -29125.00000      3.525804
    1390           0       627.916504  -1894.423340  -29375.00000      3.674978
    1391           0       627.916504  -1894.423340  -29625.00000      3.727824
    1392           0       627.916504  -1894.423340  -29875.00000      2.313400
    1393           0       736.700439  -1854.829224  -26125.00000      7.291697
    1394           0       736.700439  -1854.829224  -26375.00000      7.642642
    1395           0       736.700439  -1854.829224  -26625.00000      6.890963
    1396           0       736.700439  -1854.829224  -26875.00000      6.627460
    1397           0       736.700439  -1854.829224  -27125.00000      6.103507
    1398           0       736.700439  -1854.829224  -27375.00000      5.713447
    1399           0       736.700439  -1854.829224  -27625.00000      5.249720
    1400           0       736.700439  -1854.829224  -27875.00000      4.807132
    1401           0       736.700439  -1854.829224  -28125.00000      4.430785
    1402           0       736.700439  -1854.829224  -28375.00000      4.016766
    1403           0       736.700439  -1854.829224  -28625.00000      3.819176
    1404           0       736.700439  -1854.829224  -28875.00000      3.652690
    1405           0       736.700439  -1854.829224  -29125.00000      3.730533
    1406           0       736.700439  -1854.829224  -29375.00000      4.106085
    1407           0       736.700439  -1854.829224  -29625.00000      5.006241
    1408           0       736.700439  -1854.829224  -29875.00000      3.538225
    1409           0       842.020264  -1805.717773  -26125.00000      9.186112
    1410           0       842.020264  -1805.717773  -26375.00000     10.484556
    1411           0       842.020264  -1805.717773  -26625.00000      9.736051
    1412           0       842.020264  -1805.717773  -26875.00000      8.580259
    1413           0       842.020264  -1805.717773  -27125.00000      8.101875
    1414           0       842.020264  -1805.717773  -27375.00000      6.994820
    1415           0       842.020264  -1805.717773  -27625.00000      6.256917
    1416           0       842.020264  -1805.717773  -27875.00000      5.249804
    1417           0       842.020264  -1805.717773  -28125.00000      4.396720
    1418           0       842.020264  -1805.717773  -28375.00000      3.569839
    1419           0       842.020264  -1805.717773  -28625.00000      2.925729
    1420           0       842.020264  -1805.717773  -28875.00000      2.708292
    1421           0       842.020264  -1805.717773  -29125.00000      3.125592
    1422           0       842.020264  -1805.717773  -29375.00000      3.493252
    1423           0       842.020264  -1805.717773  -29625.00000      6.002996
    1424           0       842.020264  -1805.717773  -29875.00000      4.208965
    1425           0       947.340210  -1756.606201  -26125.00000     11.729232
    1426           0       947.340210  -1756.606201  -26375.00000     11.540640
    1427           0       947.340210  -1756.606201  -26625.00000     10.059454
    1428           0       947.340210  -1756.606201  -26875.00000      9.589005
    1429           0       947.340210  -1756.606201  -27125.00000      8.231437
    1430           0       947.340210  -1756.606201  -27375.00000      7.390257
    1431           0       947.340210  -1756.606201  -27625.00000      6.102858
    1432           0       947.340210  -1756.606201  -27875.00000      5.047682
    1433           0       947.340210  -1756.606201  -28125.00000      3.837844
    1434           0       947.340210  -1756.606201  -28375.00000      2.870919
    1435           0       947.340210  -1756.606201  -28625.00000      2.383621
    1436           0       947.340210  -1756.606201  -28875.00000      2.816573
    1437           0       947.340210  -1756.606201  -29125.00000      3.976243
    1438           0       947.340210  -1756.606201  -29375.00000      5.364158
    1439           0       947.340210  -1756.606201  -29625.00000      7.706771
    1440           0       947.340210  -1756.606201  -29875.00000      7.223888
    1441           0      1047.595947  -1698.723511  -26125.00000     11.554296
    1442           0      1047.595947  -1698.723511  -26375.00000     11.458142
    1443           0      1047.595947  -1698.723511  -26625.00000      9.869461
    1444           0      1047.595947  -1698.723511  -26875.00000      9.441119
    1445           0      1047.595947  -1698.723511  -27125.00000      8.036156
    1446           0      1047.595947  -1698.723511  -27375.00000      7.188356
    1447           0      1047.595947  -1698.723511  -27625.00000      5.842140
    1448           0      1047.595947  -1698.723511  -27875.00000      4.768305
    1449           0      1047.595947  -1698.723511  -28125.00000      3.512277
    1450           0      1047.595947  -1698.723511  -28375.00000      2.689631
    1451           0      1047.595947  -1698.723511  -28625.00000      2.497257
    1452           0      1047.595947  -1698.723511  -28875.00000      3.457114
    1453           0      1047.595947  -1698.723511  -29125.00000      4.752313
    1454           0      1047.595947  -1698.723511  -29375.00000      6.559835
    1455           0      1047.595947  -1698.723511  -29625.00000      8.533401
    1456           0      1047.595947  -1698.723511  -29875.00000      8.837816
    1457           0      1142.787720  -1632.069580  -26125.00000      8.830589
    1458           0      1142.787720  -1632.069580  -26375.00000     10.598493
    1459           0      1142.787720  -1632.069580  -26625.00000     10.101448
    1460           0      1142.787720  -1632.069580  -26875.00000      9.439077
    1461           0      1142.787720  -1632.069580  -27125.00000      9.258194
    1462           0      1142.787720  -1632.069580  -27375.00000      8.523114
    1463           0      1142.787720  -1632.069580  -27625.00000      8.015522
    1464           0      1142.787720  -1632.069580  -27875.00000      7.248465
    1465           0      1142.787720  -1632.069580  -28125.00000      6.577801
    1466           0      1142.787720  -1632.069580  -28375.00000      5.954817
    1467           0      1142.787720  -1632.069580  -28625.00000      5.562718
    1468           0      1142.787720  -1632.069580  -28875.00000      5.573800
    1469           0      1142.787720  -1632.069580  -29125.00000      6.136801
    1470           0      1142.787720  -1632.069580  -29375.00000      6.719992
    1471           0      1142.787720  -1632.069580  -29625.00000      9.361045
    1472           0      1142.787720  -1632.069580  -29875.00000      7.992907
    1473           0      1237.979370  -1565.415527  -26125.00000      6.518642
    1474           0      1237.979370  -1565.415527  -26375.00000      6.739912
    1475           0      1237.979370  -1565.415527  -26625.00000      5.932264
    1476           0      1237.979370  -1565.415527  -26875.00000      5.882026
    1477           0      1237.979370  -1565.415527  -27125.00000      5.577134
    1478           0      1237.979370  -1565.415527  -27375.00000      5.347016
    1479           0      1237.979370  -1565.415527  -27625.00000      5.066054
    1480           0      1237.979370  -1565.415527  -27875.00000      4.718254
    1481           0      1237.979370  -1565.415527  -28125.00000      4.549720
    1482           0      1237.979370  -1565.415527  -28375.00000      4.456583
    1483           0      1237.979370  -1565.415527  -28625.00000      4.890128
    1484           0      1237.979370  -1565.415527  -28875.00000      5.569576
    1485           0      1237.979370  -1565.415527  -29125.00000      6.737071
    1486           0      1237.979370  -1565.415527  -29375.00000      7.841308
    1487           0      1237.979370  -1565.415527  -29625.00000     10.306031
    1488           0      1237.979370  -1565.415527  -29875.00000      9.113626
    1489           0      1326.660889  -1491.003052  -26125.00000      1.736142
    1490           0      1326.660889  -1491.003052  -26375.00000      1.661201
    1491           0      1326.660889  -1491.003052  -26625.00000      1.294063
    1492           0      1326.660889  -1491.003052  -26875.00000      2.511575
    1493           0      1326.660889  -1491.003052  -27125.00000      3.177392
    1494           0      1326.660889  -1491.003052  -27375.00000      3.969187
    1495           0      1326.660889  -1491.003052  -27625.00000      4.493634
    1496           0      1326.660889  -1491.003052  -27875.00000      5.042665
    1497           0      1326.660889  -1491.003052  -28125.00000      5.419585
    1498           0      1326.660889  -1491.003052  -28375.00000      5.937116
    1499           0      1326.660889  -1491.003052  -28625.00000      6.378689
    1500           0      1326.660889  -1491.003052  -28875.00000      7.095291
    1501           0      1326.660889  -1491.003052  -29125.00000      7.702866
    1502           0      1326.660889  -1491.003052  -29375.00000      8.593135
    1503           0      1326.660889  -1491.003052  -29625.00000      9.440864
    1504           0      1326.660889  -1491.003052  -29875.00000      9.053628
    1505           0      1408.832275  -1408.831787  -26125.00000      6.042408
    1506           0      1408.832275  -1408.831787  -26375.00000      8.075734
    1507           0      1408.832275  -1408.831787  -26625.00000      7.507498
    1508           0      1408.832275  -1408.831787  -26875.00000      8.447392
    1509           0      1408.832275  -1408.831787  -27125.00000      8.733200
    1510           0      1408.832275  -1408.831787  -27375.00000      9.254359
    1511           0      1408.832275  -1408.831787  -27625.00000      9.470231
    1512           0      1408.832275  -1408.831787  -27875.00000      9.638826
    1513           0      1408.832275  -1408.831787  -28125.00000      9.621162
    1514           0      1408.832275  -1408.831787  -28375.00000      9.465261
    1515           0      1408.832275  -1408.831787  -28625.00000      9.290045
    1516           0      1408.832275  -1408.831787  -28875.00000      8.946621
    1517           0      1408.832275  -1408.831787  -29125.00000      8.870287
    1518           0      1408.832275  -1408.831787  -29375.00000      8.318621
    1519           0      1408.832275  -1408.831787  -29625.00000      8.832618
    1520           0      1408.832275  -1408.831787  -29875.00000      7.937268
    1521           0      1491.003296  -1326.660645  -26125.00000     14.545803
    1522           0      1491.003296  -1326.660645  -26375.00000     15.135636
    1523           0      1491.003296  -1326.660645  -26625.00000     14.142146
    1524           0      1491.003296  -1326.660645  -26875.00000     13.635847
    1525           0      1491.003296  -1326.660645  -27125.00000     13.013256
    1526           0      1491.003296  -1326.660645  -27375.00000     12.386359
    1527           0      1491.003296  -1326.660645  -27625.00000     11.751443
    1528           0      1491.003296  -1326.660645  -27875.00000     10.972098
    1529           0      1491.003296  -1326.660645  -28125.00000     10.151938
    1530           0      1491.003296  -1326.660645  -28375.00000      9.254457
    1531           0      1491.003296  -1326.660645  -28625.00000      8.380869
    1532           0      1491.003296  -1326.660645  -28875.00000      7.653282
    1533           0      1491.003296  -1326.660645  -29125.00000      7.227362
    1534           0      1491.003296  -1326.660645  -29375.00000      6.997319
    1535           0      1491.003296  -1326.660645  -29625.00000      7.624599
    1536           0      1491.003296  -1326.660645  -29875.00000      8.434229
    1537           0      1565.416016  -1237.979126  -26125.00000     23.927170
    1538           0      1565.416016  -1237.979126  -26375.00000     25.025606
    1539           0      1565.416016  -1237.979126  -26625.00000     23.336937
    1540           0      1565.416016  -1237.979126  -26875.00000     21.401270
    1541           0      1565.416016  -1237.979126  -27125.00000     20.229059
    1542           0      1565.416016  -1237.979126  -27375.00000     18.422060
    1543           0      1565.416016  -1237.979126  -27625.00000     16.751144
    1544           0      1565.416016  -1237.979126  -27875.00000     14.845775
    1545           0      1565.416016  -1237.979126  -28125.00000     12.787402
    1546           0      1565.416016  -1237.979126  -28375.00000     10.742604
    1547           0      1565.416016  -1237.979126  -28625.00000      8.509933
    1548           0      1565.416016  -1237.979126  -28875.00000      6.838622
    1549           0      1565.416016  -1237.979126  -29125.00000      5.443400
    1550           0      1565.416016  -1237.979126  -29375.00000      5.815592
    1551           0      1565.416016  -1237.979126  -29625.00000      7.935526
    1552           0      1565.416016  -1237.979126  -29875.00000      7.541032
    1553           0      1632.069946  -1142.787354  -26125.00000     32.437962
    1554           0      1632.069946  -1142.787354  -26375.00000     37.494534
    1555           0      1632.069946  -1142.787354  -26625.00000     31.948898
    1556           0      1632.069946  -1142.787354  -26875.00000     29.977510
    1557           0      1632.069946  -1142.787354  -27125.00000     27.632652
    1558           0      1632.069946  -1142.787354  -27375.00000     24.861166
    1559           0      1632.069946  -1142.787354  -27625.00000     22.182621
    1560           0      1632.069946  -1142.787354  -27875.00000     19.050837
    1561           0      1632.069946  -1142.787354  -28125.00000     15.883358
    1562           0      1632.069946  -1142.787354  -28375.00000     12.170200
    1563           0      1632.069946  -1142.787354  -28625.00000      8.579677
    1564           0      1632.069946  -1142.787354  -28875.00000      4.457853
    1565           0      1632.069946  -1142.787354  -29125.00000      2.207287
    1566           0      1632.069946  -1142.787354  -29375.00000      5.036957
    1567           0      1632.069946  -1142.787354  -29625.00000      9.914864
    1568           0      1632.069946  -1142.787354  -29875.00000     10.331138
    1569           0      1698.723877  -1047.595581  -26125.00000     45.810631
    1570           0      1698.723877  -1047.595581  -26375.00000     48.091293
    1571           0      1698.723877  -1047.595581  -26625.00000     42.828323
    1572           0      1698.723877  -1047.595581  -26875.00000     40.564156
    1573           0      1698.723877  -1047.595581  -27125.00000     37.066391
    1574           0      1698.723877  -1047.595581  -27375.00000     34.222157
    1575           0      1698.723877  -1047.595581  -27625.00000     30.723698
    1576           0      1698.723877  -1047.595581  -27875.00000     27.260090
    1577           0      1698.723877  -1047.595581  -28125.00000     23.088837
    1578           0      1698.723877  -1047.595581  -28375.00000     18.769520
    1579           0      1698.723877  -1047.595581  -28625.00000     13.812515
    1580           0      1698.723877  -1047.595581  -28875.00000      9.253012
    1581           0      1698.723877  -1047.595581  -29125.00000      6.054229
    1582           0      1698.723877  -1047.595581  -29375.00000      7.266199
    1583           0      1698.723877  -1047.595581  -29625.00000     12.995139
    1584           0      1698.723877  -1047.595581  -29875.00000     16.085672
    1585           0      1756.606689   -947.339722  -26125.00000     55.994801
    1586           0      1756.606689   -947.339722  -26375.00000     56.599846
    1587           0      1756.606689   -947.339722  -26625.00000     50.811310
    1588           0      1756.606689   -947.339722  -26875.00000     46.637402
    1589           0      1756.606689   -947.339722  -27125.00000     42.545715
    1590           0      1756.606689   -947.339722  -27375.00000     38.648479
    1591           0      1756.606689   -947.339722  -27625.00000     34.597591
    1592           0      1756.606689   -947.339722  -27875.00000     30.611353
    1593           0      1756.606689   -947.339722  -28125.00000     26.246283
    1594           0      1756.606689   -947.339722  -28375.00000     21.902164
    1595           0      1756.606689   -947.339722  -28625.00000     17.383913
    1596           0      1756.606689   -947.339722  -28875.00000     13.423268
    1597           0      1756.606689   -947.339722  -29125.00000     11.283292
    1598           0      1756.606689   -947.339722  -29375.00000     11.403806
    1599           0      1756.606689   -947.339722  -29625.00000     15.232552
    1600           0      1756.606689   -947.339722  -29875.00000     19.316313
    1601           0      1805.718140   -842.019836  -26125.00000     57.807964
    1602           0      1805.718140   -842.019836  -26375.00000     65.533569
    1603           0      1805.718140   -842.019836  -26625.00000     53.920967
    1604           0      1805.718140   -842.019836  -26875.00000     48.259270
    1605           0      1805.718140   -842.019836  -27125.00000     43.001408
    1606           0      1805.718140   -842.019836  -27375.00000     37.207691
    1607           0      1805.718140   -842.019836  -27625.00000     32.515293
    1608           0      1805.718140   -842.019836  -27875.00000     27.742556
    1609           0      1805.718140   -842.019836  -28125.00000     23.847698
    1610           0      1805.718140   -842.019836  -28375.00000     20.154613
    1611           0      1805.718140   -842.019836  -28625.00000     17.402233
    1612           0      1805.718140   -842.019836  -28875.00000     15.219584
    1613           0      1805.718140   -842.019836  -29125.00000     14.446485
    1614           0      1805.718140   -842.019836  -29375.00000     14.617128
    1615           0      1805.718140   -842.019836  -29625.00000     17.148031
    1616           0      1805.718140   -842.019836  -29875.00000     16.410770
    1617           0      1854.829468   -736.699951  -26125.00000     68.675552
    1618           0      1854.829468   -736.699951  -26375.00000     71.368500
    1619           0      1854.829468   -736.699951  -26625.00000     59.197960
    1620           0      1854.829468   -736.699951  -26875.00000     53.075821
    1621           0      1854.829468   -736.699951  -27125.00000     45.701031
    1622           0      1854.829468   -736.699951  -27375.00000     39.752953
    1623           0      1854.829468   -736.699951  -27625.00000     34.109413
    1624           0      1854.829468   -736.699951  -27875.00000     29.680460
    1625           0      1854.829468   -736.699951  -28125.00000     26.076769
    1626           0      1854.829468   -736.699951  -28375.00000     23.458424
    1627           0      1854.829468   -736.699951  -28625.00000     21.491280
    1628           0      1854.829468   -736.699951  -28875.00000     20.148417
    1629           0      1854.829468   -736.699951  -29125.00000     18.993849
    1630           0      1854.829468   -736.699951  -29375.00000     18.403294
    1631           0      1854.829468   -736.699951  -29625.00000     18.852440
    1632           0      1854.829468   -736.699951  -29875.00000     15.311772
    1633           0      1894.423584   -627.916016  -26125.00000     72.086960
    1634           0      1894.423584   -627.916016  -26375.00000     67.914261
    1635           0      1894.423584   -627.916016  -26625.00000     57.387875
    1636           0      1894.423584   -627.916016  -26875.00000     50.559307
    1637           0      1894.423584   -627.916016  -27125.00000     42.424473
    1638           0      1894.423584   -627.916016  -27375.00000     36.271149
    1639           0      1894.423584   -627.916016  -27625.00000     30.393410
    1640           0      1894.423584   -627.916016  -27875.00000     26.448393
    1641           0      1894.423584   -627.916016  -28125.00000     23.465435
    1642           0      1894.423584   -627.916016  -28375.00000     21.991573
    1643           0      1894.423584   -627.916016  -28625.00000     21.150970
    1644           0      1894.423584   -627.916016  -28875.00000     20.816833
    1645           0      1894.423584   -627.916016  -29125.00000     20.613171
    1646           0      1894.423584   -627.916016  -29375.00000     20.067961
    1647           0      1894.423584   -627.916016  -29625.00000     19.108086
    1648           0      1894.423584   -627.916016  -29875.00000     17.581039
    1649           0      1924.500366   -515.667969  -26125.00000     56.501518
    1650           0      1924.500366   -515.667969  -26375.00000     61.503601
    1651           0      1924.500366   -515.667969  -26625.00000     49.358540
    1652           0      1924.500366   -515.667969  -26875.00000     43.761219
    1653           0      1924.500366   -515.667969  -27125.00000     38.278755
    1654           0      1924.500366   -515.667969  -27375.00000     34.088001
    1655           0      1924.500366   -515.667969  -27625.00000     31.617226
    1656           0      1924.500366   -515.667969  -27875.00000     29.881834
    1657           0      1924.500366   -515.667969  -28125.00000     28.701231
    1658           0      1924.500366   -515.667969  -28375.00000     27.339350
    1659           0      1924.500366   -515.667969  -28625.00000     25.779026
    1660           0      1924.500366   -515.667969  -28875.00000     23.784891
    1661           0      1924.500366   -515.667969  -29125.00000     21.909002
    1662           0      1924.500366   -515.667969  -29375.00000     19.864798
    1663           0      1924.500366   -515.667969  -29625.00000     18.564018
    1664           0      1924.500366   -515.667969  -29875.00000     16.391029
    1665           0      1954.577148   -403.420013  -26125.00000     48.086082
    1666           0      1954.577148   -403.420013  -26375.00000     55.721996
    1667           0      1954.577148   -403.420013  -26625.00000     47.839878
    1668           0      1954.577148   -403.420013  -26875.00000     44.863270
    1669           0      1954.577148   -403.420013  -27125.00000     43.531456
    1670           0      1954.577148   -403.420013  -27375.00000     43.584747
    1671           0      1954.577148   -403.420013  -27625.00000     44.475590
    1672           0      1954.577148   -403.420013  -27875.00000     44.575546
    1673           0      1954.577148   -403.420013  -28125.00000     43.582958
    1674           0      1954.577148   -403.420013  -28375.00000     40.781971
    1675           0      1954.577148   -403.420013  -28625.00000     36.413437
    1676           0      1954.577148   -403.420013  -28875.00000     30.367035
    1677           0      1954.577148   -403.420013  -29125.00000     23.715927
    1678           0      1954.577148   -403.420013  -29375.00000     17.627750
    1679           0      1954.577148   -403.420013  -29625.00000     15.140913
    1680           0      1954.577148   -403.420013  -29875.00000     14.787416
    1681           0      1979.795044   -273.648010  -26125.00000     40.641819
    1682           0      1979.795044   -273.648010  -26375.00000     48.858147
    1683           0      1979.795044   -273.648010  -26625.00000     51.455086
    1684           0      1979.795044   -273.648010  -26875.00000     53.726521
    1685           0      1979.795044   -273.648010  -27125.00000     55.171284
    1686           0      1979.795044   -273.648010  -27375.00000     56.229588
    1687           0      1979.795044   -273.648010  -27625.00000     56.243896
    1688           0      1979.795044   -273.648010  -27875.00000     55.067829
    1689           0      1979.795044   -273.648010  -28125.00000     52.279163
    1690           0      1979.795044   -273.648010  -28375.00000     47.819824
    1691           0      1979.795044   -273.648010  -28625.00000     41.765438
    1692           0      1979.795044   -273.648010  -28875.00000     34.128471
    1693           0      1979.795044   -273.648010  -29125.00000     25.682631
    1694           0      1979.795044   -273.648010  -29375.00000     16.646784
    1695           0      1979.795044   -273.648010  -29625.00000     10.410658
    1696           0      1979.795044   -273.648010  -29875.00000     11.423954
    1697           0      1994.987305   -100.000000  -26125.00000     46.936302
    1698           0      1994.987305   -100.000000  -26375.00000     52.621159
    1699           0      1994.987305   -100.000000  -26625.00000     54.061409
    1700           0      1994.987305   -100.000000  -26875.00000     55.520691
    1701           0      1994.987305   -100.000000  -27125.00000     55.874676
    1702           0      1994.987305   -100.000000  -27375.00000     56.300163
    1703           0      1994.987305   -100.000000  -27625.00000     55.810036
    1704           0      1994.987305   -100.000000  -27875.00000     54.415245
    1705           0      1994.987305   -100.000000  -28125.00000     51.525448
    1706           0      1994.987305   -100.000000  -28375.00000     47.093338
    1707           0      1994.987305   -100.000000  -28625.00000     41.106571
    1708           0      1994.987305   -100.000000  -28875.00000     33.600464
    1709           0      1994.987305   -100.000000  -29125.00000     25.333616
    1710           0      1994.987305   -100.000000  -29375.00000     16.652197
    1711           0      1994.987305   -100.000000  -29625.00000     11.387754
    1712           0      1994.987305   -100.000000  -29875.00000     12.141125
    1713           0      1994.936035     57.882732  -13625.00000    143.195465
    1714           0      1994.936035     57.882732  -13875.00000    162.762268
    1715           0      1994.936035     57.882732  -14125.00000    146.491196
    1716           0      1994.936035     57.882732  -14375.00000    140.691727
    1717           0      1994.936035     57.882732  -14625.00000    135.037918
    1718           0      1994.936035     57.882732  -14875.00000    131.045837
    1719           0      1994.936035     57.882732  -15125.00000    129.676468
    1720           0      1994.936035     57.882732  -15375.00000    129.632965
    1721           0      1994.936035     57.882736  -15625.00000    131.019119
    1722           0      1994.936035     57.882736  -15875.00000    132.888107
    1723           0      1994.936035     57.882736  -16125.00000    135.217438
    1724           0      1994.936035     57.882736  -16375.00000    137.490875
    1725           0      1994.936035     57.882736  -16625.00000    139.708328
    1726           0      1994.936035     57.882736  -16875.00000    141.639404
    1727           0      1994.936035     57.882736  -17125.00000    143.307739
    1728           0      1994.936035     57.882736  -17375.00000    144.635300
    1729           0      1994.936035     57.882736  -17625.00000    145.658524
    1730           0      1994.936035     57.882736  -17875.00000    146.370544
    1731           0      1994.936035     57.882736  -18125.00000    146.809692
    1732           0      1994.936035     57.882736  -18375.00000    146.995834
    1733           0      1994.936035     57.882736  -18625.00000    146.961456
    1734           0      1994.936035     57.882736  -18875.00000    146.730331
    1735           0      1994.936035     57.882736  -19125.00000    146.324661
    1736           0      1994.936035     57.882736  -19375.00000    145.761108
    1737           0      1994.936035     57.882736  -19625.00000    145.048996
    1738           0      1994.936035     57.882740  -19875.00000    144.192749
    1739           0      1994.936035     57.882744  -20125.00000    143.187180
    1740           0      1994.936035     57.882744  -20375.00000    142.021713
    1741           0      1994.936035     57.882744  -20625.00000    140.675308
    1742           0      1994.936035     57.882744  -20875.00000    139.120758
    1743           0      1994.936035     57.882744  -21125.00000    137.319870
    1744           0      1994.936035     57.882744  -21375.00000    135.227875
    1745           0      1994.936035     57.882744  -21625.00000    132.788635
    1746           0      1994.936035     57.882744  -21875.00000    129.940018
    1747           0      1994.936035     57.882744  -22125.00000    126.608582
    1748           0      1994.936035     57.882744  -22375.00000    122.718536
    1749           0      1994.936035     57.882744  -22625.00000    118.182892
    1750           0      1994.936035     57.882744  -22875.00000    112.922798
    1751           0      1994.936035     57.882744  -23125.00000    106.848015
    1752           0      1994.936035     57.882744  -23375.00000     99.903481
    1753           0      1994.936035     57.882744  -23625.00000     92.023201
    1754           0      1994.936035     57.882744  -23875.00000     83.251244
    1755           0      1994.936035     57.882748  -24125.00000     73.652313
    1756           0      1994.936035     57.882748  -24375.00000     63.645546
    1757           0      1994.936035     57.882748  -24625.00000     53.928799
    1758           0      1994.936035     57.882748  -24875.00000     46.223183
    1759           0      1994.936035     57.882748  -25125.00000     43.070805
    1760           0      1994.936035     57.882748  -25375.00000     44.340271
    1761           0      1994.936035     57.882748  -25625.00000     54.657551
    1762           0      1994.936035     57.882740  -25875.00000     49.904625
    1763           0      1984.807739    173.648193  -13625.00000    159.868713
    1764           0      1984.807739    173.648193  -13875.00000    173.133759
    1765           0      1984.807739    173.648193  -14125.00000    151.481110
    1766           0      1984.807739    173.648193  -14375.00000    143.149261
    1767           0      1984.807739    173.648193  -14625.00000    134.286789
    1768           0      1984.807739    173.648193  -14875.00000    126.126343
    1769           0      1984.807739    173.648193  -15125.00000    120.870430
    1770           0      1984.807739    173.648193  -15375.00000    116.673058
    1771           0      1984.807739    173.648193  -15625.00000    114.733932
    1772           0      1984.807739    173.648178  -15875.00000    113.928200
    1773           0      1984.807739    173.648178  -16125.00000    114.513489
    1774           0      1984.807739    173.648178  -16375.00000    115.819084
    1775           0      1984.807739    173.648178  -16625.00000    117.769173
    1776           0      1984.807739    173.648178  -16875.00000    119.981941
    1777           0      1984.807739    173.648178  -17125.00000    122.344215
    1778           0      1984.807739    173.648178  -17375.00000    124.659286
    1779           0      1984.807739    173.648178  -17625.00000    126.855789
    1780           0      1984.807739    173.648178  -17875.00000    128.842133
    1781           0      1984.807739    173.648178  -18125.00000    130.586746
    1782           0      1984.807739    173.648163  -18375.00000    132.050583
    1783           0      1984.807739    173.648163  -18625.00000    133.224594
    1784           0      1984.807739    173.648163  -18875.00000    134.092117
    1785           0      1984.807739    173.648163  -19125.00000    134.652481
    1786           0      1984.807739    173.648163  -19375.00000    134.895126
    1787           0      1984.807739    173.648163  -19625.00000    134.819092
    1788           0      1984.807739    173.648148  -19875.00000    134.411179
    1789           0      1984.807739    173.648163  -20125.00000    133.665146
    1790           0      1984.807739    173.648163  -20375.00000    132.560349
    1791           0      1984.807739    173.648163  -20625.00000    131.083389
    1792           0      1984.807739    173.648163  -20875.00000    129.203064
    1793           0      1984.807739    173.648148  -21125.00000    126.898811
    1794           0      1984.807739    173.648148  -21375.00000    124.127571
    1795           0      1984.807739    173.648148  -21625.00000    120.864197
    1796           0      1984.807739    173.648148  -21875.00000    117.053665
    1797           0      1984.807739    173.648148  -22125.00000    112.673111
    1798           0      1984.807739    173.648148  -22375.00000    107.658531
    1799           0      1984.807739    173.648148  -22625.00000    102.004074
    1800           0      1984.807739    173.648132  -22875.00000     95.646797
    1801           0      1984.807739    173.648132  -23125.00000     88.627602
    1802           0      1984.807739    173.648132  -23375.00000     80.915840
    1803           0      1984.807739    173.648132  -23625.00000     72.662041
    1804           0      1984.807739    173.648132  -23875.00000     63.978180
    1805           0      1984.807739    173.648132  -24125.00000     55.282154
    1806           0      1984.807739    173.648132  -24375.00000     47.280560
    1807           0      1984.807739    173.648132  -24625.00000     41.024261
    1808           0      1984.807739    173.648132  -24875.00000     38.797371
    1809           0      1984.807739    173.648132  -25125.00000     40.849442
    1810           0      1984.807739    173.648132  -25375.00000     46.318897
    1811           0      1984.807739    173.648117  -25625.00000     60.215935
    1812           0      1984.807739    173.648163  -25875.00000     54.875431
    1813           0      1974.679443    289.413666  -13625.00000    187.358063
    1814           0      1974.679443    289.413666  -13875.00000    178.680603
    1815           0      1974.679443    289.413635  -14125.00000    163.240143
    1816           0      1974.679443    289.413635  -14375.00000    152.325897
    1817           0      1974.679443    289.413635  -14625.00000    138.982285
    1818           0      1974.679443    289.413635  -14875.00000    128.805725
    1819           0      1974.679443    289.413635  -15125.00000    118.073090
    1820           0      1974.679443    289.413635  -15375.00000    110.093613
    1821           0      1974.679443    289.413635  -15625.00000    103.016022
    1822           0      1974.679443    289.413635  -15875.00000     98.646309
    1823           0      1974.679443    289.413635  -16125.00000     95.784737
    1824           0      1974.679443    289.413635  -16375.00000     95.142563
    1825           0      1974.679443    289.413635  -16625.00000     95.769165
    1826           0      1974.679443    289.413635  -16875.00000     97.743057
    1827           0      1974.679443    289.413635  -17125.00000    100.369019
    1828           0      1974.679443    289.413635  -17375.00000    103.544060
    1829           0      1974.679443    289.413635  -17625.00000    106.842842
    1830           0      1974.679443    289.413635  -17875.00000    110.174255
    1831           0      1974.679443    289.413635  -18125.00000    113.305695
    1832           0      1974.679443    289.413635  -18375.00000    116.187210
    1833           0      1974.679443    289.413635  -18625.00000    118.696144
    1834           0      1974.679443    289.413635  -18875.00000    120.810364
    1835           0      1974.679443    289.413635  -19125.00000    122.463043
    1836           0      1974.679443    289.413635  -19375.00000    123.645248
    1837           0      1974.679443    289.413605  -19625.00000    124.315742
    1838           0      1974.679443    289.413605  -19875.00000    124.469513
    1839           0      1974.679443    289.413605  -20125.00000    124.074638
    1840           0      1974.679443    289.413605  -20375.00000    123.125603
    1841           0      1974.679443    289.413605  -20625.00000    121.591370
    1842           0      1974.679443    289.413605  -20875.00000    119.464844
    1843           0      1974.679443    289.413605  -21125.00000    116.712021
    1844           0      1974.679443    289.413605  -21375.00000    113.326653
    1845           0      1974.679443    289.413605  -21625.00000    109.271309
    1846           0      1974.679443    289.413605  -21875.00000    104.547340
    1847           0      1974.679443    289.413605  -22125.00000     99.117676
    1848           0      1974.679443    289.413605  -22375.00000     93.005264
    1849           0      1974.679443    289.413574  -22625.00000     86.186119
    1850           0      1974.679443    289.413574  -22875.00000     78.733948
    1851           0      1974.679443    289.413574  -23125.00000     70.677010
    1852           0      1974.679443    289.413574  -23375.00000     62.209747
    1853           0      1974.679443    289.413574  -23625.00000     53.548943
    1854           0      1974.679443    289.413574  -23875.00000     45.220577
    1855           0      1974.679443    289.413574  -24125.00000     38.137589
    1856           0      1974.679443    289.413574  -24375.00000     33.627316
    1857           0      1974.679443    289.413574  -24625.00000     33.610077
    1858           0      1974.679443    289.413574  -24875.00000     37.469093
    1859           0      1974.679443    289.413574  -25125.00000     45.428879
    1860           0      1974.679443    289.413574  -25375.00000     52.837082
    1861           0      1974.679443    289.413574  -25625.00000     65.758636
    1862           0      1974.679443    289.413605  -25875.00000     68.366562
    1863           0      1954.577026    403.420410  -13625.00000    175.455139
    1864           0      1954.577026    403.420410  -13875.00000    188.289200
    1865           0      1954.577026    403.420410  -14125.00000    165.367035
    1866           0      1954.577026    403.420410  -14375.00000    154.928543
    1867           0      1954.577026    403.420410  -14625.00000    141.635345
    1868           0      1954.577026    403.420410  -14875.00000    129.819107
    1869           0      1954.577026    403.420410  -15125.00000    117.882858
    1870           0      1954.577026    403.420410  -15375.00000    107.338364
    1871           0      1954.577026    403.420410  -15625.00000     97.755348
    1872           0      1954.577026    403.420410  -15875.00000     89.930504
    1873           0      1954.577026    403.420410  -16125.00000     83.895050
    1874           0      1954.577026    403.420410  -16375.00000     79.858658
    1875           0      1954.577026    403.420410  -16625.00000     77.816925
    1876           0      1954.577026    403.420410  -16875.00000     77.490234
    1877           0      1954.577026    403.420410  -17125.00000     78.647385
    1878           0      1954.577026    403.420410  -17375.00000     80.796242
    1879           0      1954.577026    403.420410  -17625.00000     83.660103
    1880           0      1954.577026    403.420410  -17875.00000     86.829384
    1881           0      1954.577026    403.420410  -18125.00000     90.120880
    1882           0      1954.577026    403.420410  -18375.00000     93.276154
    1883           0      1954.577026    403.420410  -18625.00000     96.201088
    1884           0      1954.577026    403.420410  -18875.00000     98.746315
    1885           0      1954.577026    403.420410  -19125.00000    100.868958
    1886           0      1954.577026    403.420410  -19375.00000    102.482384
    1887           0      1954.577026    403.420410  -19625.00000    103.568176
    1888           0      1954.577026    403.420410  -19875.00000    104.073196
    1889           0      1954.577026    403.420410  -20125.00000    103.989281
    1890           0      1954.577026    403.420410  -20375.00000    103.281067
    1891           0      1954.577026    403.420410  -20625.00000    101.944389
    1892           0      1954.577026    403.420410  -20875.00000     99.954323
    1893           0      1954.577026    403.420410  -21125.00000     97.309410
    1894           0      1954.577026    403.420410  -21375.00000     93.993736
    1895           0      1954.577026    403.420410  -21625.00000     90.011467
    1896           0      1954.577026    403.420410  -21875.00000     85.359833
    1897           0      1954.577026    403.420410  -22125.00000     80.057159
    1898           0      1954.577026    403.420410  -22375.00000     74.126266
    1899           0      1954.577026    403.420410  -22625.00000     67.621384
    1900           0      1954.577026    403.420410  -22875.00000     60.622421
    1901           0      1954.577026    403.420410  -23125.00000     53.285549
    1902           0      1954.577026    403.420410  -23375.00000     45.841248
    1903           0      1954.577026    403.420410  -23625.00000     38.792656
    1904           0      1954.577026    403.420410  -23875.00000     32.818592
    1905           0      1954.577026    403.420410  -24125.00000     29.451113
    1906           0      1954.577026    403.420410  -24375.00000     29.396111
    1907           0      1954.577026    403.420410  -24625.00000     33.708691
    1908           0      1954.577026    403.420410  -24875.00000     39.590866
    1909           0      1954.577026    403.420410  -25125.00000     48.318726
    1910           0      1954.577026    403.420410  -25375.00000     55.360477
    1911           0      1954.577026    403.420410  -25625.00000     67.143768
    1912           0      1954.577026    403.420410  -25875.00000     69.918030
    1913           0      1924.500244    515.668335  -13625.00000    164.305649
    1914           0      1924.500244    515.668335  -13875.00000    182.835892
    1915           0      1924.500244    515.668335  -14125.00000    159.554794
    1916           0      1924.500244    515.668335  -14375.00000    149.066467
    1917           0      1924.500244    515.668335  -14625.00000    138.843033
    1918           0      1924.500244    515.668335  -14875.00000    126.762901
    1919           0      1924.500244    515.668335  -15125.00000    116.653595
    1920           0      1924.500244    515.668335  -15375.00000    105.892357
    1921           0      1924.500244    515.668335  -15625.00000     96.541862
    1922           0      1924.500244    515.668335  -15875.00000     87.438065
    1923           0      1924.500244    515.668335  -16125.00000     79.729469
    1924           0      1924.500244    515.668335  -16375.00000     72.913628
    1925           0      1924.500244    515.668335  -16625.00000     67.628410
    1926           0      1924.500244    515.668335  -16875.00000     63.656975
    1927           0      1924.500244    515.668335  -17125.00000     61.220940
    1928           0      1924.500244    515.668335  -17375.00000     60.099449
    1929           0      1924.500244    515.668335  -17625.00000     60.155163
    1930           0      1924.500244    515.668335  -17875.00000     61.093914
    1931           0      1924.500244    515.668335  -18125.00000     62.632030
    1932           0      1924.500244    515.668335  -18375.00000     64.516220
    1933           0      1924.500244    515.668335  -18625.00000     66.504196
    1934           0      1924.500244    515.668335  -18875.00000     68.437279
    1935           0      1924.500244    515.668335  -19125.00000     70.157333
    1936           0      1924.500244    515.668335  -19375.00000     71.578697
    1937           0      1924.500244    515.668335  -19625.00000     72.607758
    1938           0      1924.500244    515.668335  -19875.00000     73.201027
    1939           0      1924.500244    515.668396  -20125.00000     73.306511
    1940           0      1924.500244    515.668396  -20375.00000     72.903435
    1941           0      1924.500244    515.668396  -20625.00000     71.968155
    1942           0      1924.500244    515.668396  -20875.00000     70.492928
    1943           0      1924.500244    515.668396  -21125.00000     68.477844
    1944           0      1924.500244    515.668396  -21375.00000     65.925491
    1945           0      1924.500244    515.668396  -21625.00000     62.862965
    1946           0      1924.500244    515.668396  -21875.00000     59.306641
    1947           0      1924.500244    515.668396  -22125.00000     55.323822
    1948           0      1924.500244    515.668396  -22375.00000     50.958752
    1949           0      1924.500244    515.668396  -22625.00000     46.351349
    1950           0      1924.500244    515.668396  -22875.00000     41.616821
    1951           0      1924.500244    515.668396  -23125.00000     37.044830
    1952           0      1924.500244    515.668396  -23375.00000     32.940125
    1953           0      1924.500244    515.668396  -23625.00000     29.860374
    1954           0      1924.500244    515.668396  -23875.00000     28.379255
    1955           0      1924.500244    515.668396  -24125.00000     28.893475
    1956           0      1924.500244    515.668396  -24375.00000     31.540421
    1957           0      1924.500244    515.668396  -24625.00000     35.560364
    1958           0      1924.500244    515.668396  -24875.00000     41.049580
    1959           0      1924.500244    515.668396  -25125.00000     46.751827
    1960           0      1924.500244    515.668396  -25375.00000     52.419552
    1961           0      1924.500244    515.668396  -25625.00000     64.495712
    1962           0      1924.500244    515.668396  -25875.00000     58.132435
    1963           0      1894.423584    627.916321  -13625.00000    169.899246
    1964           0      1894.423584    627.916321  -13875.00000    167.840942
    1965           0      1894.423584    627.916321  -14125.00000    156.236679
    1966           0      1894.423584    627.916321  -14375.00000    146.917282
    1967           0      1894.423584    627.916321  -14625.00000    136.638947
    1968           0      1894.423584    627.916321  -14875.00000    127.637749
    1969           0      1894.423584    627.916321  -15125.00000    117.864624
    1970           0      1894.423584    627.916321  -15375.00000    109.004929
    1971           0      1894.423584    627.916321  -15625.00000     99.776970
    1972           0      1894.423584    627.916321  -15875.00000     91.275398
    1973           0      1894.423584    627.916321  -16125.00000     82.765846
    1974           0      1894.423584    627.916321  -16375.00000     75.004135
    1975           0      1894.423584    627.916321  -16625.00000     67.599701
    1976           0      1894.423584    627.916321  -16875.00000     61.089706
    1977           0      1894.423584    627.916321  -17125.00000     55.300526
    1978           0      1894.423584    627.916321  -17375.00000     50.599926
    1979           0      1894.423584    627.916321  -17625.00000     46.905239
    1980           0      1894.423584    627.916321  -17875.00000     44.379440
    1981           0      1894.423584    627.916321  -18125.00000     42.878372
    1982           0      1894.423584    627.916321  -18375.00000     42.316742
    1983           0      1894.423584    627.916321  -18625.00000     42.447678
    1984           0      1894.423584    627.916321  -18875.00000     43.055317
    1985           0      1894.423584    627.916321  -19125.00000     43.906216
    1986           0      1894.423584    627.916321  -19375.00000     44.811989
    1987           0      1894.423584    627.916321  -19625.00000     45.622311
    1988           0      1894.423584    627.916321  -19875.00000     46.222507
    1989           0      1894.423584    627.916382  -20125.00000     46.533798
    1990           0      1894.423584    627.916382  -20375.00000     46.503548
    1991           0      1894.423584    627.916382  -20625.00000     46.098827
    1992           0      1894.423584    627.916382  -20875.00000     45.314846
    1993           0      1894.423584    627.916382  -21125.00000     44.149094
    1994           0      1894.423584    627.916382  -21375.00000     42.641624
    1995           0      1894.423584    627.916382  -21625.00000     40.816830
    1996           0      1894.423584    627.916382  -21875.00000     38.769081
    1997           0      1894.423584    627.916382  -22125.00000     36.557171
    1998           0      1894.423584    627.916382  -22375.00000     34.352158
    1999           0      1894.423584    627.916382  -22625.00000     32.262096
    2000           0      1894.423584    627.916382  -22875.00000     30.553814
    2001           0      1894.423584    627.916382  -23125.00000     29.365612
    2002           0      1894.423584    627.916382  -23375.00000     28.991817
    2003           0      1894.423584    627.916382  -23625.00000     29.445301
    2004           0      1894.423584    627.916382  -23875.00000     30.862562
    2005           0      1894.423584    627.916382  -24125.00000     32.987495
    2006           0      1894.423584    627.916382  -24375.00000     35.864185
    2007           0      1894.423584    627.916382  -24625.00000     39.059231
    2008           0      1894.423584    627.916382  -24875.00000     42.923214
    2009           0      1894.423584    627.916382  -25125.00000     46.719563
    2010           0      1894.423584    627.916382  -25375.00000     50.912533
    2011           0      1894.423584    627.916382  -25625.00000     58.575905
    2012           0      1894.423584    627.916321  -25875.00000     53.672291
    2013           0      1854.829346    736.700317  -13625.00000    150.894775
    2014           0      1854.829346    736.700317  -13875.00000    161.901443
    2015           0      1854.829346    736.700317  -14125.00000    147.086502
    2016           0      1854.829346    736.700317  -14375.00000    140.831406
    2017           0      1854.829346    736.700317  -14625.00000    132.153259
    2018           0      1854.829346    736.700317  -14875.00000    124.728912
    2019           0      1854.829346    736.700317  -15125.00000    116.706520
    2020           0      1854.829346    736.700317  -15375.00000    109.263199
    2021           0      1854.829346    736.700317  -15625.00000    101.593002
    2022           0      1854.829346    736.700317  -15875.00000     94.235451
    2023           0      1854.829346    736.700317  -16125.00000     86.925240
    2024           0      1854.829346    736.700317  -16375.00000     79.894722
    2025           0      1854.829346    736.700317  -16625.00000     73.132141
    2026           0      1854.829346    736.700317  -16875.00000     66.743233
    2027           0      1854.829346    736.700317  -17125.00000     60.819687
    2028           0      1854.829346    736.700317  -17375.00000     55.418217
    2029           0      1854.829346    736.700317  -17625.00000     50.658173
    2030           0      1854.829346    736.700317  -17875.00000     46.568012
    2031           0      1854.829346    736.700317  -18125.00000     43.238110
    2032           0      1854.829346    736.700317  -18375.00000     40.646595
    2033           0      1854.829346    736.700317  -18625.00000     38.799152
    2034           0      1854.829346    736.700317  -18875.00000     37.594376
    2035           0      1854.829346    736.700317  -19125.00000     36.942429
    2036           0      1854.829346    736.700317  -19375.00000     36.691109
    2037           0      1854.829346    736.700317  -19625.00000     36.717415
    2038           0      1854.829346    736.700317  -19875.00000     36.885120
    2039           0      1854.829346    736.700317  -20125.00000     37.101154
    2040           0      1854.829346    736.700317  -20375.00000     37.278805
    2041           0      1854.829346    736.700317  -20625.00000     37.374641
    2042           0      1854.829346    736.700317  -20875.00000     37.348881
    2043           0      1854.829346    736.700317  -21125.00000     37.204128
    2044           0      1854.829346    736.700317  -21375.00000     36.935169
    2045           0      1854.829346    736.700317  -21625.00000     36.583115
    2046           0      1854.829346    736.700317  -21875.00000     36.164967
    2047           0      1854.829346    736.700317  -22125.00000     35.752544
    2048           0      1854.829346    736.700317  -22375.00000     35.371033
    2049           0      1854.829346    736.700317  -22625.00000     35.111744
    2050           0      1854.829346    736.700317  -22875.00000     34.987633
    2051           0      1854.829346    736.700317  -23125.00000     35.095337
    2052           0      1854.829346    736.700317  -23375.00000     35.408531
    2053           0      1854.829346    736.700317  -23625.00000     36.027107
    2054           0      1854.829346    736.700317  -23875.00000     36.855179
    2055           0      1854.829346    736.700317  -24125.00000     38.036171
    2056           0      1854.829346    736.700317  -24375.00000     39.353699
    2057           0      1854.829346    736.700317  -24625.00000     41.128963
    2058           0      1854.829346    736.700317  -24875.00000     42.853020
    2059           0      1854.829346    736.700317  -25125.00000     45.343307
    2060           0      1854.829346    736.700317  -25375.00000     47.549305
    2061           0      1854.829346    736.700317  -25625.00000     50.501205
    2062           0      1854.829346    736.700317  -25875.00000     52.192768
    2063           0      1805.717896    842.020203  -13625.00000    134.413956
    2064           0      1805.717896    842.020203  -13875.00000    151.718735
    2065           0      1805.717896    842.020203  -14125.00000    135.663544
    2066           0      1805.717896    842.020203  -14375.00000    130.110901
    2067           0      1805.717896    842.020203  -14625.00000    124.592964
    2068           0      1805.717896    842.020203  -14875.00000    117.604805
    2069           0      1805.717896    842.020203  -15125.00000    111.848846
    2070           0      1805.717896    842.020203  -15375.00000    105.475609
    2071           0      1805.717896    842.020203  -15625.00000     99.671066
    2072           0      1805.717896    842.020203  -15875.00000     93.657356
    2073           0      1805.717896    842.020142  -16125.00000     88.028168
    2074           0      1805.717896    842.020142  -16375.00000     82.410164
    2075           0      1805.717896    842.020142  -16625.00000     77.128922
    2076           0      1805.717896    842.020142  -16875.00000     72.023521
    2077           0      1805.717896    842.020142  -17125.00000     67.274185
    2078           0      1805.717896    842.020142  -17375.00000     62.830372
    2079           0      1805.717896    842.020142  -17625.00000     58.791626
    2080           0      1805.717896    842.020142  -17875.00000     55.155834
    2081           0      1805.717896    842.020142  -18125.00000     51.970600
    2082           0      1805.717896    842.020142  -18375.00000     49.241283
    2083           0      1805.717896    842.020142  -18625.00000     46.972015
    2084           0      1805.717896    842.020142  -18875.00000     45.149277
    2085           0      1805.717896    842.020142  -19125.00000     43.737644
    2086           0      1805.717896    842.020142  -19375.00000     42.697418
    2087           0      1805.717896    842.020142  -19625.00000     41.966293
    2088           0      1805.717896    842.020142  -19875.00000     41.490326
    2089           0      1805.717896    842.020142  -20125.00000     41.201321
    2090           0      1805.717896    842.020142  -20375.00000     41.050484
    2091           0      1805.717896    842.020142  -20625.00000     40.980152
    2092           0      1805.717896    842.020142  -20875.00000     40.958260
    2093           0      1805.717896    842.020142  -21125.00000     40.943230
    2094           0      1805.717896    842.020142  -21375.00000     40.923737
    2095           0      1805.717896    842.020142  -21625.00000     40.871738
    2096           0      1805.717896    842.020142  -21875.00000     40.794910
    2097           0      1805.717896    842.020142  -22125.00000     40.673176
    2098           0      1805.717896    842.020142  -22375.00000     40.530525
    2099           0      1805.717896    842.020142  -22625.00000     40.349720
    2100           0      1805.717896    842.020142  -22875.00000     40.169315
    2101           0      1805.717896    842.020142  -23125.00000     39.973274
    2102           0      1805.717896    842.020142  -23375.00000     39.813084
    2103           0      1805.717896    842.020081  -23625.00000     39.679752
    2104           0      1805.717896    842.020081  -23875.00000     39.630013
    2105           0      1805.717896    842.020081  -24125.00000     39.680641
    2106           0      1805.717896    842.020081  -24375.00000     39.863583
    2107           0      1805.717896    842.020081  -24625.00000     40.249535
    2108           0      1805.717896    842.020081  -24875.00000     40.788750
    2109           0      1805.717896    842.020081  -25125.00000     41.727951
    2110           0      1805.717896    842.020081  -25375.00000     41.968937
    2111           0      1805.717896    842.020081  -25625.00000     45.936646
    2112           0      1805.717896    842.020142  -25875.00000     42.052464
    2113           0      1756.606445    947.340088  -13625.00000    130.924942
    2114           0      1756.606445    947.340088  -13875.00000    132.699524
    2115           0      1756.606445    947.340088  -14125.00000    127.084763
    2116           0      1756.606445    947.340088  -14375.00000    122.024460
    2117           0      1756.606445    947.340088  -14625.00000    117.403580
    2118           0      1756.606445    947.340088  -14875.00000    112.972412
    2119           0      1756.606445    947.340088  -15125.00000    108.391312
    2120           0      1756.606445    947.340088  -15375.00000    104.189102
    2121           0      1756.606445    947.340088  -15625.00000     99.919151
    2122           0      1756.606445    947.340088  -15875.00000     95.974960
    2123           0      1756.606445    947.340027  -16125.00000     92.060043
    2124           0      1756.606445    947.340027  -16375.00000     88.435562
    2125           0      1756.606445    947.340027  -16625.00000     84.916153
    2126           0      1756.606445    947.340027  -16875.00000     81.669540
    2127           0      1756.606445    947.340027  -17125.00000     78.588913
    2128           0      1756.606445    947.340027  -17375.00000     75.775864
    2129           0      1756.606445    947.340027  -17625.00000     73.171936
    2130           0      1756.606445    947.340027  -17875.00000     70.832047
    2131           0      1756.606445    947.340027  -18125.00000     68.721840
    2132           0      1756.606445    947.340027  -18375.00000     66.862144
    2133           0      1756.606445    947.340027  -18625.00000     65.226196
    2134           0      1756.606445    947.340027  -18875.00000     63.809853
    2135           0      1756.606445    947.340027  -19125.00000     62.585209
    2136           0      1756.606445    947.340027  -19375.00000     61.531063
    2137           0      1756.606445    947.340027  -19625.00000     60.617111
    2138           0      1756.606445    947.340027  -19875.00000     59.810570
    2139           0      1756.606445    947.340027  -20125.00000     59.081547
    2140           0      1756.606445    947.340027  -20375.00000     58.395588
    2141           0      1756.606445    947.340027  -20625.00000     57.726101
    2142           0      1756.606445    947.340027  -20875.00000     57.038795
    2143           0      1756.606445    947.340027  -21125.00000     56.315521
    2144           0      1756.606445    947.340027  -21375.00000     55.526318
    2145           0      1756.606445    947.340027  -21625.00000     54.664455
    2146           0      1756.606445    947.340027  -21875.00000     53.705872
    2147           0      1756.606445    947.340027  -22125.00000     52.659180
    2148           0      1756.606445    947.340027  -22375.00000     51.507416
    2149           0      1756.606445    947.340027  -22625.00000     50.278351
    2150           0      1756.606445    947.340027  -22875.00000     48.963215
    2151           0      1756.606445    947.340027  -23125.00000     47.610104
    2152           0      1756.606445    947.340027  -23375.00000     46.220325
    2153           0      1756.606445    947.339966  -23625.00000     44.854347
    2154           0      1756.606445    947.339966  -23875.00000     43.531876
    2155           0      1756.606445    947.339966  -24125.00000     42.295727
    2156           0      1756.606445    947.339966  -24375.00000     41.216606
    2157           0      1756.606445    947.339966  -24625.00000     40.219936
    2158           0      1756.606445    947.339966  -24875.00000     39.613087
    2159           0      1756.606445    947.339966  -25125.00000     38.783375
    2160           0      1756.606445    947.339966  -25375.00000     38.440853
    2161           0      1756.606445    947.339966  -25625.00000     40.016659
    2162           0      1756.606445    947.340027  -25875.00000     34.411522
    2163           0      1698.723633   1047.595947  -13625.00000    115.270638
    2164           0      1698.723633   1047.595947  -13875.00000    125.343285
    2165           0      1698.723633   1047.595947  -14125.00000    117.581741
    2166           0      1698.723633   1047.595947  -14375.00000    114.978020
    2167           0      1698.723633   1047.595947  -14625.00000    111.281982
    2168           0      1698.723633   1047.595947  -14875.00000    108.143547
    2169           0      1698.723633   1047.595947  -15125.00000    104.803238
    2170           0      1698.723633   1047.595947  -15375.00000    101.808159
    2171           0      1698.723633   1047.595947  -15625.00000     98.814072
    2172           0      1698.723633   1047.595947  -15875.00000     96.049591
    2173           0      1698.723633   1047.595947  -16125.00000     93.396400
    2174           0      1698.723633   1047.595947  -16375.00000     90.922279
    2175           0      1698.723633   1047.595947  -16625.00000     88.602974
    2176           0      1698.723633   1047.595947  -16875.00000     86.444130
    2177           0      1698.723633   1047.595947  -17125.00000     84.451653
    2178           0      1698.723633   1047.595947  -17375.00000     82.608742
    2179           0      1698.723633   1047.595947  -17625.00000     80.924713
    2180           0      1698.723633   1047.595947  -17875.00000     79.375679
    2181           0      1698.723633   1047.595947  -18125.00000     77.964325
    2182           0      1698.723633   1047.595947  -18375.00000     76.665260
    2183           0      1698.723633   1047.595947  -18625.00000     75.471878
    2184           0      1698.723633   1047.595947  -18875.00000     74.359077
    2185           0      1698.723633   1047.595947  -19125.00000     73.312050
    2186           0      1698.723633   1047.595947  -19375.00000     72.305862
    2187           0      1698.723633   1047.595947  -19625.00000     71.320450
    2188           0      1698.723633   1047.595947  -19875.00000     70.331985
    2189           0      1698.723633   1047.595947  -20125.00000     69.316193
    2190           0      1698.723633   1047.595947  -20375.00000     68.253357
    2191           0      1698.723633   1047.595947  -20625.00000     67.117897
    2192           0      1698.723633   1047.595947  -20875.00000     65.895317
    2193           0      1698.723633   1047.595947  -21125.00000     64.562538
    2194           0      1698.723633   1047.595947  -21375.00000     63.113884
    2195           0      1698.723633   1047.595947  -21625.00000     61.530716
    2196           0      1698.723633   1047.595947  -21875.00000     59.821396
    2197           0      1698.723633   1047.595947  -22125.00000     57.973904
    2198           0      1698.723633   1047.595947  -22375.00000     56.017094
    2199           0      1698.723633   1047.595947  -22625.00000     53.945915
    2200           0      1698.723633   1047.595947  -22875.00000     51.816784
    2201           0      1698.723633   1047.595947  -23125.00000     49.626160
    2202           0      1698.723633   1047.595947  -23375.00000     47.464199
    2203           0      1698.723633   1047.595947  -23625.00000     45.310375
    2204           0      1698.723633   1047.595947  -23875.00000     43.294655
    2205           0      1698.723633   1047.595947  -24125.00000     41.339943
    2206           0      1698.723633   1047.595947  -24375.00000     39.632370
    2207           0      1698.723633   1047.595947  -24625.00000     37.976910
    2208           0      1698.723633   1047.595947  -24875.00000     36.668625
    2209           0      1698.723633   1047.595947  -25125.00000     35.263485
    2210           0      1698.723633   1047.595947  -25375.00000     34.484791
    2211           0      1698.723633   1047.595947  -25625.00000     33.126770
    2212           0      1698.723633   1047.595947  -25875.00000     32.135387
    2213           0      1632.069702   1142.787598  -13625.00000    105.589211
    2214           0      1632.069702   1142.787598  -13875.00000    120.331429
    2215           0      1632.069702   1142.787598  -14125.00000    110.248787
    2216           0      1632.069702   1142.787598  -14375.00000    108.439507
    2217           0      1632.069702   1142.787598  -14625.00000    106.256943
    2218           0      1632.069702   1142.787598  -14875.00000    103.292130
    2219           0      1632.069702   1142.787598  -15125.00000    101.027756
    2220           0      1632.069702   1142.787598  -15375.00000     98.514175
    2221           0      1632.069702   1142.787598  -15625.00000     96.304787
    2222           0      1632.069702   1142.787598  -15875.00000     94.061745
    2223           0      1632.069702   1142.787598  -16125.00000     92.028900
    2224           0      1632.069702   1142.787598  -16375.00000     90.043488
    2225           0      1632.069702   1142.787598  -16625.00000     88.224289
    2226           0      1632.069702   1142.787598  -16875.00000     86.493073
    2227           0      1632.069702   1142.787598  -17125.00000     84.898415
    2228           0      1632.069702   1142.787598  -17375.00000     83.401390
    2229           0      1632.069702   1142.787598  -17625.00000     82.012329
    2230           0      1632.069702   1142.787598  -17875.00000     80.707649
    2231           0      1632.069702   1142.787598  -18125.00000     79.477882
    2232           0      1632.069702   1142.787598  -18375.00000     78.304131
    2233           0      1632.069702   1142.787598  -18625.00000     77.167938
    2234           0      1632.069702   1142.787598  -18875.00000     76.050560
    2235           0      1632.069702   1142.787598  -19125.00000     74.931633
    2236           0      1632.069702   1142.787598  -19375.00000     73.791946
    2237           0      1632.069702   1142.787598  -19625.00000     72.611481
    2238           0      1632.069702   1142.787598  -19875.00000     71.373512
    2239           0      1632.069702   1142.787598  -20125.00000     70.059906
    2240           0      1632.069702   1142.787598  -20375.00000     68.655205
    2241           0      1632.069702   1142.787598  -20625.00000     67.146645
    2242           0      1632.069702   1142.787598  -20875.00000     65.522949
    2243           0      1632.069702   1142.787598  -21125.00000     63.779175
    2244           0      1632.069702   1142.787598  -21375.00000     61.908859
    2245           0      1632.069702   1142.787598  -21625.00000     59.917423
    2246           0      1632.069702   1142.787598  -21875.00000     57.805676
    2247           0      1632.069702   1142.787598  -22125.00000     55.592258
    2248           0      1632.069702   1142.787598  -22375.00000     53.286190
    2249           0      1632.069702   1142.787598  -22625.00000     50.922688
    2250           0      1632.069702   1142.787598  -22875.00000     48.516476
    2251           0      1632.069702   1142.787598  -23125.00000     46.122913
    2252           0      1632.069702   1142.787598  -23375.00000     43.751907
    2253           0      1632.069702   1142.787598  -23625.00000     41.484173
    2254           0      1632.069702   1142.787598  -23875.00000     39.297642
    2255           0      1632.069702   1142.787598  -24125.00000     37.313847
    2256           0      1632.069702   1142.787598  -24375.00000     35.424065
    2257           0      1632.069702   1142.787598  -24625.00000     33.838634
    2258           0      1632.069702   1142.787598  -24875.00000     32.256168
    2259           0      1632.069702   1142.787598  -25125.00000     31.205698
    2260           0      1632.069702   1142.787598  -25375.00000     29.635424
    2261           0      1632.069702   1142.787598  -25625.00000     29.468634
    2262           0      1632.069702   1142.787598  -25875.00000     28.270082
    2263           0      1565.415771   1237.979248  -13625.00000    105.039772
    2264           0      1565.415771   1237.979248  -13875.00000    108.444481
    2265           0      1565.415771   1237.979248  -14125.00000    106.170586
    2266           0      1565.415771   1237.979248  -14375.00000    103.898857
    2267           0      1565.415771   1237.979248  -14625.00000    102.242844
    2268           0      1565.415771   1237.979248  -14875.00000    100.577782
    2269           0      1565.415771   1237.979248  -15125.00000     98.911034
    2270           0      1565.415771   1237.979248  -15375.00000     97.431953
    2271           0      1565.415771   1237.979248  -15625.00000     95.963593
    2272           0      1565.415771   1237.979248  -15875.00000     94.656013
    2273           0      1565.415771   1237.979248  -16125.00000     93.399139
    2274           0      1565.415771   1237.979248  -16375.00000     92.283844
    2275           0      1565.415771   1237.979248  -16625.00000     91.237068
    2276           0      1565.415771   1237.979248  -16875.00000     90.305237
    2277           0      1565.415771   1237.979248  -17125.00000     89.436798
    2278           0      1565.415771   1237.979248  -17375.00000     88.645226
    2279           0      1565.415771   1237.979248  -17625.00000     87.890594
    2280           0      1565.415771   1237.979248  -17875.00000     87.165199
    2281           0      1565.415771   1237.979248  -18125.00000     86.435608
    2282           0      1565.415771   1237.979248  -18375.00000     85.682671
    2283           0      1565.415771   1237.979248  -18625.00000     84.878456
    2284           0      1565.415771   1237.979248  -18875.00000     83.998810
    2285           0      1565.415771   1237.979248  -19125.00000     83.020302
    2286           0      1565.415771   1237.979248  -19375.00000     81.921539
    2287           0      1565.415771   1237.979370  -19625.00000     80.685722
    2288           0      1565.415771   1237.979370  -19875.00000     79.293564
    2289           0      1565.415771   1237.979370  -20125.00000     77.733223
    2290           0      1565.415771   1237.979370  -20375.00000     75.995552
    2291           0      1565.415771   1237.979370  -20625.00000     74.075638
    2292           0      1565.415771   1237.979370  -20875.00000     71.971161
    2293           0      1565.415771   1237.979370  -21125.00000     69.687637
    2294           0      1565.415771   1237.979370  -21375.00000     67.231194
    2295           0      1565.415771   1237.979370  -21625.00000     64.619102
    2296           0      1565.415771   1237.979370  -21875.00000     61.866203
    2297           0      1565.415771   1237.979370  -22125.00000     59.002865
    2298           0      1565.415771   1237.979370  -22375.00000     56.051056
    2299           0      1565.415771   1237.979370  -22625.00000     53.054337
    2300           0      1565.415771   1237.979370  -22875.00000     50.037392
    2301           0      1565.415771   1237.979370  -23125.00000     47.055351
    2302           0      1565.415771   1237.979370  -23375.00000     44.127735
    2303           0      1565.415771   1237.979370  -23625.00000     41.318787
    2304           0      1565.415771   1237.979370  -23875.00000     38.631233
    2305           0      1565.415771   1237.979370  -24125.00000     36.141045
    2306           0      1565.415771   1237.979370  -24375.00000     33.816113
    2307           0      1565.415771   1237.979370  -24625.00000     31.756041
    2308           0      1565.415771   1237.979370  -24875.00000     29.899067
    2309           0      1565.415771   1237.979370  -25125.00000     28.336313
    2310           0      1565.415771   1237.979370  -25375.00000     26.924738
    2311           0      1565.415771   1237.979370  -25625.00000     26.385464
    2312           0      1565.415771   1237.979370  -25875.00000     25.263912
    2313           0      1491.003052   1326.660889  -13625.00000     97.099869
    2314           0      1491.003052   1326.660889  -13875.00000    107.296562
    2315           0      1491.003052   1326.660889  -14125.00000    102.546715
    2316           0      1491.003052   1326.660889  -14375.00000    101.545815
    2317           0      1491.003052   1326.660889  -14625.00000    100.229103
    2318           0      1491.003052   1326.660889  -14875.00000     98.984306
    2319           0      1491.003052   1326.660889  -15125.00000     97.760117
    2320           0      1491.003052   1326.660889  -15375.00000     96.658287
    2321           0      1491.003052   1326.660889  -15625.00000     95.587051
    2322           0      1491.003052   1326.660889  -15875.00000     94.608627
    2323           0      1491.003052   1326.660889  -16125.00000     93.691933
    2324           0      1491.003052   1326.660889  -16375.00000     92.848137
    2325           0      1491.003052   1326.660889  -16625.00000     92.067322
    2326           0      1491.003052   1326.660889  -16875.00000     91.337273
    2327           0      1491.003052   1326.660889  -17125.00000     90.649651
    2328           0      1491.003052   1326.660889  -17375.00000     89.980888
    2329           0      1491.003052   1326.660889  -17625.00000     89.318626
    2330           0      1491.003052   1326.660889  -17875.00000     88.634399
    2331           0      1491.003052   1326.660889  -18125.00000     87.911636
    2332           0      1491.003052   1326.660889  -18375.00000     87.121155
    2333           0      1491.003052   1326.660889  -18625.00000     86.244003
    2334           0      1491.003052   1326.660889  -18875.00000     85.255226
    2335           0      1491.003052   1326.660889  -19125.00000     84.132294
    2336           0      1491.003052   1326.660889  -19375.00000     82.858459
    2337           0      1491.003052   1326.660889  -19625.00000     81.416969
    2338           0      1491.003052   1326.660889  -19875.00000     79.793541
    2339           0      1491.003052   1326.660889  -20125.00000     77.976837
    2340           0      1491.003052   1326.660889  -20375.00000     75.965469
    2341           0      1491.003052   1326.660889  -20625.00000     73.752357
    2342           0      1491.003052   1326.660889  -20875.00000     71.347939
    2343           0      1491.003052   1326.660889  -21125.00000     68.750359
    2344           0      1491.003052   1326.660889  -21375.00000     65.986061
    2345           0      1491.003052   1326.660889  -21625.00000     63.056271
    2346           0      1491.003052   1326.660889  -21875.00000     60.006962
    2347           0      1491.003052   1326.660889  -22125.00000     56.837505
    2348           0      1491.003052   1326.660889  -22375.00000     53.618401
    2349           0      1491.003052   1326.660889  -22625.00000     50.336742
    2350           0      1491.003052   1326.660889  -22875.00000     47.095234
    2351           0      1491.003052   1326.660889  -23125.00000     43.850060
    2352           0      1491.003052   1326.660889  -23375.00000     40.750950
    2353           0      1491.003052   1326.660889  -23625.00000     37.692505
    2354           0      1491.003052   1326.660889  -23875.00000     34.904480
    2355           0      1491.003052   1326.660889  -24125.00000     32.170570
    2356           0      1491.003052   1326.660889  -24375.00000     29.870640
    2357           0      1491.003052   1326.660889  -24625.00000     27.591402
    2358           0      1491.003052   1326.660889  -24875.00000     25.999176
    2359           0      1491.003052   1326.660889  -25125.00000     24.291832
    2360           0      1491.003052   1326.660889  -25375.00000     23.574081
    2361           0      1491.003052   1326.660889  -25625.00000     23.115927
    2362           0      1491.003052   1326.660889  -25875.00000     21.198864
    2363           0      1408.831787   1408.832031  -13625.00000     95.520973
    2364           0      1408.831787   1408.832031  -13875.00000    109.671005
    2365           0      1408.831787   1408.832031  -14125.00000    101.552170
    2366           0      1408.831787   1408.832031  -14375.00000    101.296013
    2367           0      1408.831787   1408.832031  -14625.00000    100.307510
    2368           0      1408.831787   1408.832031  -14875.00000     98.837204
    2369           0      1408.831787   1408.832031  -15125.00000     97.802017
    2370           0      1408.831787   1408.832031  -15375.00000     96.603424
    2371           0      1408.831787   1408.832031  -15625.00000     95.557014
    2372           0      1408.831787   1408.832031  -15875.00000     94.470032
    2373           0      1408.831787   1408.832031  -16125.00000     93.469742
    2374           0      1408.831787   1408.832031  -16375.00000     92.457184
    2375           0      1408.831787   1408.832031  -16625.00000     91.490318
    2376           0      1408.831787   1408.832031  -16875.00000     90.515579
    2377           0      1408.831787   1408.832031  -17125.00000     89.551186
    2378           0      1408.831787   1408.832031  -17375.00000     88.566315
    2379           0      1408.831787   1408.832031  -17625.00000     87.558205
    2380           0      1408.831787   1408.832031  -17875.00000     86.505981
    2381           0      1408.831787   1408.832031  -18125.00000     85.396812
    2382           0      1408.831787   1408.832031  -18375.00000     84.214333
    2383           0      1408.831787   1408.832031  -18625.00000     82.940735
    2384           0      1408.831787   1408.832031  -18875.00000     81.565414
    2385           0      1408.832031   1408.831909  -19125.00000     80.068092
    2386           0      1408.832031   1408.831909  -19375.00000     78.439323
    2387           0      1408.832031   1408.831909  -19625.00000     76.669647
    2388           0      1408.832031   1408.831909  -19875.00000     74.745071
    2389           0      1408.832031   1408.831909  -20125.00000     72.667336
    2390           0      1408.832031   1408.831909  -20375.00000     70.426910
    2391           0      1408.832031   1408.831909  -20625.00000     68.031693
    2392           0      1408.832031   1408.831909  -20875.00000     65.478340
    2393           0      1408.832031   1408.831909  -21125.00000     62.784935
    2394           0      1408.832031   1408.831909  -21375.00000     59.950924
    2395           0      1408.832031   1408.831909  -21625.00000     57.008537
    2396           0      1408.832031   1408.831909  -21875.00000     53.955994
    2397           0      1408.832031   1408.831909  -22125.00000     50.843590
    2398           0      1408.832031   1408.831909  -22375.00000     47.661766
    2399           0      1408.832031   1408.831909  -22625.00000     44.484966
    2400           0      1408.832031   1408.831909  -22875.00000     41.285213
    2401           0      1408.832031   1408.831909  -23125.00000     38.172092
    2402           0      1408.832031   1408.831909  -23375.00000     35.083454
    2403           0      1408.832031   1408.831909  -23625.00000     32.184696
    2404           0      1408.832031   1408.831909  -23875.00000     29.359098
    2405           0      1408.832031   1408.831909  -24125.00000     26.862370
    2406           0      1408.832031   1408.831909  -24375.00000     24.503666
    2407           0      1408.832031   1408.831909  -24625.00000     22.663464
    2408           0      1408.832031   1408.831909  -24875.00000     21.063108
    2409           0      1408.832031   1408.831909  -25125.00000     20.204102
    2410           0      1408.832031   1408.832031  -25375.00000     19.642574
    2411           0      1408.831909   1408.832031  -25625.00000     20.015896
    2412           0      1408.831909   1408.832031  -25875.00000     20.199987
    2413           0      1326.660767   1491.003174  -13625.00000    101.448593
    2414           0      1326.660767   1491.003174  -13875.00000    106.071472
    2415           0      1326.660767   1491.003174  -14125.00000    104.154305
    2416           0      1326.660767   1491.003174  -14375.00000    102.843964
    2417           0      1326.660767   1491.003174  -14625.00000    101.682831
    2418           0      1326.660767   1491.003174  -14875.00000    100.673447
    2419           0      1326.660767   1491.003174  -15125.00000     99.517502
    2420           0      1326.660767   1491.003174  -15375.00000     98.528900
    2421           0      1326.660767   1491.003174  -15625.00000     97.472183
    2422           0      1326.660767   1491.003174  -15875.00000     96.499542
    2423           0      1326.660767   1491.003174  -16125.00000     95.499741
    2424           0      1326.660767   1491.003174  -16375.00000     94.539307
    2425           0      1326.660767   1491.003174  -16625.00000     93.561005
    2426           0      1326.660767   1491.003174  -16875.00000     92.589348
    2427           0      1326.660767   1491.003174  -17125.00000     91.592224
    2428           0      1326.660767   1491.003174  -17375.00000     90.571060
    2429           0      1326.660767   1491.003174  -17625.00000     89.504700
    2430           0      1326.660767   1491.003174  -17875.00000     88.382622
    2431           0      1326.660767   1491.003174  -18125.00000     87.188019
    2432           0      1326.660767   1491.003174  -18375.00000     85.906013
    2433           0      1326.660767   1491.003174  -18625.00000     84.520935
    2434           0      1326.660767   1491.003174  -18875.00000     83.020874
    2435           0      1326.660767   1491.003174  -19125.00000     81.390488
    2436           0      1326.660767   1491.003174  -19375.00000     79.619041
    2437           0      1326.660767   1491.003174  -19625.00000     77.701363
    2438           0      1326.660767   1491.003174  -19875.00000     75.627518
    2439           0      1326.660767   1491.003174  -20125.00000     73.396706
    2440           0      1326.660767   1491.003174  -20375.00000     71.008980
    2441           0      1326.660767   1491.003174  -20625.00000     68.466675
    2442           0      1326.660767   1491.003174  -20875.00000     65.779121
    2443           0      1326.660767   1491.003174  -21125.00000     62.952774
    2444           0      1326.660767   1491.003174  -21375.00000     60.005569
    2445           0      1326.660767   1491.003174  -21625.00000     56.946915
    2446           0      1326.660767   1491.003174  -21875.00000     53.803047
    2447           0      1326.660767   1491.003174  -22125.00000     50.583626
    2448           0      1326.660767   1491.003174  -22375.00000     47.322968
    2449           0      1326.660767   1491.003174  -22625.00000     44.027679
    2450           0      1326.660767   1491.003174  -22875.00000     40.740768
    2451           0      1326.660767   1491.003174  -23125.00000     37.464226
    2452           0      1326.660767   1491.003174  -23375.00000     34.251961
    2453           0      1326.660767   1491.003174  -23625.00000     31.107748
    2454           0      1326.660767   1491.003174  -23875.00000     28.097458
    2455           0      1326.660767   1491.003174  -24125.00000     25.258606
    2456           0      1326.660767   1491.003174  -24375.00000     22.649635
    2457           0      1326.660767   1491.003174  -24625.00000     20.441576
    2458           0      1326.660767   1491.003174  -24875.00000     18.571854
    2459           0      1326.660767   1491.003174  -25125.00000     17.574223
    2460           0      1326.660767   1491.003174  -25375.00000     16.909861
    2461           0      1326.660767   1491.003174  -25625.00000     17.218267
    2462           0      1326.660767   1491.003174  -25875.00000     19.578945
    2463           0      1237.979248   1565.415771  -13625.00000     99.755234
    2464           0      1237.979248   1565.415771  -13875.00000    110.812912
    2465           0      1237.979248   1565.415771  -14125.00000    106.026840
    2466           0      1237.979248   1565.415771  -14375.00000    105.057663
    2467           0      1237.979248   1565.415771  -14625.00000    103.885651
    2468           0      1237.979248   1565.415771  -14875.00000    102.632645
    2469           0      1237.979248   1565.415771  -15125.00000    101.406975
    2470           0      1237.979248   1565.415771  -15375.00000    100.239677
    2471           0      1237.979248   1565.415771  -15625.00000     99.047432
    2472           0      1237.979248   1565.415771  -15875.00000     97.898178
    2473           0      1237.979248   1565.415771  -16125.00000     96.730408
    2474           0      1237.979248   1565.415771  -16375.00000     95.583488
    2475           0      1237.979248   1565.415771  -16625.00000     94.415398
    2476           0      1237.979248   1565.415771  -16875.00000     93.246971
    2477           0      1237.979248   1565.415771  -17125.00000     92.046440
    2478           0      1237.979248   1565.415771  -17375.00000     90.820877
    2479           0      1237.979248   1565.415771  -17625.00000     89.544159
    2480           0      1237.979248   1565.415771  -17875.00000     88.214050
    2481           0      1237.979248   1565.415771  -18125.00000     86.808411
    2482           0      1237.979248   1565.415771  -18375.00000     85.320076
    2483           0      1237.979248   1565.415771  -18625.00000     83.730942
    2484           0      1237.979248   1565.415771  -18875.00000     82.032875
    2485           0      1237.979248   1565.415771  -19125.00000     80.212189
    2486           0      1237.979248   1565.415771  -19375.00000     78.262886
    2487           0      1237.979248   1565.415771  -19625.00000     76.175346
    2488           0      1237.979248   1565.415771  -19875.00000     73.950554
    2489           0      1237.979248   1565.415771  -20125.00000     71.580826
    2490           0      1237.979248   1565.415771  -20375.00000     69.074295
    2491           0      1237.979248   1565.415771  -20625.00000     66.428284
    2492           0      1237.979248   1565.415771  -20875.00000     63.658119
    2493           0      1237.979248   1565.415771  -21125.00000     60.763042
    2494           0      1237.979248   1565.415771  -21375.00000     57.768158
    2495           0      1237.979248   1565.415771  -21625.00000     54.669991
    2496           0      1237.979248   1565.415771  -21875.00000     51.506523
    2497           0      1237.979248   1565.415771  -22125.00000     48.264038
    2498           0      1237.979248   1565.415771  -22375.00000     44.999504
    2499           0      1237.979248   1565.415771  -22625.00000     41.676880
    2500           0      1237.979248   1565.415771  -22875.00000     38.385502
    2501           0      1237.979248   1565.415771  -23125.00000     35.047939
    2502           0      1237.979248   1565.415771  -23375.00000     31.814854
    2503           0      1237.979248   1565.415771  -23625.00000     28.536646
    2504           0      1237.979248   1565.415771  -23875.00000     25.485518
    2505           0      1237.979248   1565.415771  -24125.00000     22.388605
    2506           0      1237.979248   1565.415771  -24375.00000     19.758360
    2507           0      1237.979248   1565.415771  -24625.00000     17.118719
    2508           0      1237.979248   1565.415771  -24875.00000     15.422083
    2509           0      1237.979248   1565.415771  -25125.00000     13.869187
    2510           0      1237.979248   1565.415771  -25375.00000     13.768634
    2511           0      1237.979248   1565.415771  -25625.00000     14.539588
    2512           0      1237.979248   1565.415771  -25875.00000     14.073530
    2513           0      1142.787476   1632.069824  -13625.00000    102.167412
    2514           0      1142.787476   1632.069824  -13875.00000    117.896904
    2515           0      1142.787476   1632.069824  -14125.00000    108.594452
    2516           0      1142.787476   1632.069824  -14375.00000    108.250526
    2517           0      1142.787476   1632.069824  -14625.00000    106.937546
    2518           0      1142.787476   1632.069824  -14875.00000    105.101082
    2519           0      1142.787476   1632.069824  -15125.00000    103.727928
    2520           0      1142.787476   1632.069824  -15375.00000    102.116974
    2521           0      1142.787476   1632.069824  -15625.00000    100.669762
    2522           0      1142.787476   1632.069824  -15875.00000     99.121048
    2523           0      1142.787476   1632.069824  -16125.00000     97.655731
    2524           0      1142.787476   1632.069824  -16375.00000     96.128639
    2525           0      1142.787476   1632.069824  -16625.00000     94.638512
    2526           0      1142.787476   1632.069824  -16875.00000     93.102493
    2527           0      1142.787476   1632.069824  -17125.00000     91.569023
    2528           0      1142.787476   1632.069824  -17375.00000     89.989159
    2529           0      1142.787476   1632.069824  -17625.00000     88.383217
    2530           0      1142.787476   1632.069824  -17875.00000     86.720139
    2531           0      1142.787476   1632.069824  -18125.00000     85.005547
    2532           0      1142.787476   1632.069824  -18375.00000     83.218246
    2533           0      1142.787476   1632.069824  -18625.00000     81.357841
    2534           0      1142.787476   1632.069824  -18875.00000     79.408386
    2535           0      1142.787476   1632.069824  -19125.00000     77.369453
    2536           0      1142.787476   1632.069824  -19375.00000     75.229866
    2537           0      1142.787354   1632.069824  -19625.00000     72.988701
    2538           0      1142.787354   1632.069824  -19875.00000     70.641045
    2539           0      1142.787354   1632.069824  -20125.00000     68.190063
    2540           0      1142.787354   1632.069824  -20375.00000     65.631500
    2541           0      1142.787354   1632.069824  -20625.00000     62.975838
    2542           0      1142.787354   1632.069824  -20875.00000     60.219040
    2543           0      1142.787354   1632.069824  -21125.00000     57.379116
    2544           0      1142.787354   1632.069824  -21375.00000     54.449535
    2545           0      1142.787354   1632.069824  -21625.00000     51.458488
    2546           0      1142.787354   1632.069824  -21875.00000     48.391453
    2547           0      1142.787354   1632.069824  -22125.00000     45.291683
    2548           0      1142.787354   1632.069824  -22375.00000     42.128128
    2549           0      1142.787354   1632.069824  -22625.00000     38.968456
    2550           0      1142.787354   1632.069824  -22875.00000     35.751759
    2551           0      1142.787354   1632.069824  -23125.00000     32.588207
    2552           0      1142.787354   1632.069824  -23375.00000     29.366793
    2553           0      1142.787354   1632.069824  -23625.00000     26.273758
    2554           0      1142.787354   1632.069824  -23875.00000     23.119349
    2555           0      1142.787354   1632.069824  -24125.00000     20.225100
    2556           0      1142.787354   1632.069824  -24375.00000     17.296253
    2557           0      1142.787354   1632.069824  -24625.00000     14.880749
    2558           0      1142.787354   1632.069824  -24875.00000     12.631206
    2559           0      1142.787354   1632.069824  -25125.00000     11.310292
    2560           0      1142.787354   1632.069824  -25375.00000     10.872482
    2561           0      1142.787354   1632.069824  -25625.00000     11.459422
    2562           0      1142.787476   1632.069824  -25875.00000     11.957371
    2563           0      1047.595825   1698.723877  -13625.00000    112.725655
    2564           0      1047.595825   1698.723877  -13875.00000    118.644104
    2565           0      1047.595825   1698.723877  -14125.00000    115.135559
    2566           0      1047.595825   1698.723877  -14375.00000    113.466209
    2567           0      1047.595825   1698.723877  -14625.00000    111.353958
    2568           0      1047.595825   1698.723877  -14875.00000    109.665848
    2569           0      1047.595825   1698.723877  -15125.00000    107.637405
    2570           0      1047.595825   1698.723877  -15375.00000    105.865196
    2571           0      1047.595825   1698.723877  -15625.00000    103.929779
    2572           0      1047.595825   1698.723877  -15875.00000    102.112236
    2573           0      1047.595825   1698.723877  -16125.00000    100.216553
    2574           0      1047.595825   1698.723877  -16375.00000     98.373878
    2575           0      1047.595825   1698.723877  -16625.00000     96.487892
    2576           0      1047.595825   1698.723877  -16875.00000     94.619469
    2577           0      1047.595825   1698.723877  -17125.00000     92.719963
    2578           0      1047.595825   1698.723877  -17375.00000     90.815155
    2579           0      1047.595825   1698.723877  -17625.00000     88.878998
    2580           0      1047.595825   1698.723877  -17875.00000     86.919601
    2581           0      1047.595825   1698.723877  -18125.00000     84.921074
    2582           0      1047.595825   1698.723877  -18375.00000     82.883003
    2583           0      1047.595825   1698.723877  -18625.00000     80.794266
    2584           0      1047.595825   1698.723877  -18875.00000     78.650734
    2585           0      1047.595825   1698.723877  -19125.00000     76.444565
    2586           0      1047.595825   1698.723877  -19375.00000     74.171875
    2587           0      1047.595825   1698.723877  -19625.00000     71.826614
    2588           0      1047.595703   1698.723877  -19875.00000     69.408127
    2589           0      1047.595703   1698.723877  -20125.00000     66.912560
    2590           0      1047.595703   1698.723877  -20375.00000     64.342773
    2591           0      1047.595703   1698.723877  -20625.00000     61.696754
    2592           0      1047.595703   1698.723877  -20875.00000     58.982437
    2593           0      1047.595703   1698.723877  -21125.00000     56.197605
    2594           0      1047.595703   1698.723877  -21375.00000     53.356026
    2595           0      1047.595703   1698.723877  -21625.00000     50.452686
    2596           0      1047.595703   1698.723877  -21875.00000     47.508312
    2597           0      1047.595703   1698.723877  -22125.00000     44.511299
    2598           0      1047.595703   1698.723877  -22375.00000     41.492058
    2599           0      1047.595703   1698.723877  -22625.00000     38.427410
    2600           0      1047.595703   1698.723877  -22875.00000     35.363029
    2601           0      1047.595703   1698.723877  -23125.00000     32.258068
    2602           0      1047.595703   1698.723877  -23375.00000     29.183058
    2603           0      1047.595703   1698.723877  -23625.00000     26.073481
    2604           0      1047.595703   1698.723877  -23875.00000     23.037689
    2605           0      1047.595703   1698.723877  -24125.00000     19.989727
    2606           0      1047.595703   1698.723877  -24375.00000     17.085438
    2607           0      1047.595703   1698.723877  -24625.00000     14.270780
    2608           0      1047.595703   1698.723877  -24875.00000     11.718541
    2609           0      1047.595703   1698.723877  -25125.00000      9.715010
    2610           0      1047.595703   1698.723877  -25375.00000      8.274660
    2611           0      1047.595703   1698.723877  -25625.00000      8.055272
    2612           0      1047.595825   1698.723877  -25875.00000     10.445028
    2613           0       947.339905   1756.606445  -13625.00000    113.843185
    2614           0       947.339905   1756.606445  -13875.00000    125.455742
    2615           0       947.339905   1756.606445  -14125.00000    119.201714
    2616           0       947.339905   1756.606445  -14375.00000    117.386063
    2617           0       947.339905   1756.606445  -14625.00000    115.119667
    2618           0       947.339905   1756.606445  -14875.00000    112.903625
    2619           0       947.339905   1756.606445  -15125.00000    110.594437
    2620           0       947.339905   1756.606445  -15375.00000    108.414078
    2621           0       947.339905   1756.606445  -15625.00000    106.137268
    2622           0       947.339905   1756.606445  -15875.00000    103.946945
    2623           0       947.339905   1756.606445  -16125.00000    101.698326
    2624           0       947.339905   1756.606445  -16375.00000     99.502838
    2625           0       947.339905   1756.606445  -16625.00000     97.270203
    2626           0       947.339905   1756.606445  -16875.00000     95.069214
    2627           0       947.339905   1756.606445  -17125.00000     92.842842
    2628           0       947.339905   1756.606445  -17375.00000     90.632599
    2629           0       947.339905   1756.606445  -17625.00000     88.401825
    2630           0       947.339905   1756.606445  -17875.00000     86.174118
    2631           0       947.339905   1756.606445  -18125.00000     83.924637
    2632           0       947.339905   1756.606445  -18375.00000     81.665253
    2633           0       947.339905   1756.606445  -18625.00000     79.378098
    2634           0       947.339905   1756.606445  -18875.00000     77.067764
    2635           0       947.339905   1756.606445  -19125.00000     74.720833
    2636           0       947.339905   1756.606445  -19375.00000     72.338959
    2637           0       947.339905   1756.606445  -19625.00000     69.912247
    2638           0       947.339905   1756.606445  -19875.00000     67.442139
    2639           0       947.339905   1756.606445  -20125.00000     64.921570
    2640           0       947.339905   1756.606445  -20375.00000     62.353790
    2641           0       947.339905   1756.606445  -20625.00000     59.734161
    2642           0       947.339905   1756.606445  -20875.00000     57.069103
    2643           0       947.339905   1756.606445  -21125.00000     54.354401
    2644           0       947.339905   1756.606445  -21375.00000     51.601231
    2645           0       947.339905   1756.606445  -21625.00000     48.802410
    2646           0       947.339905   1756.606445  -21875.00000     45.976372
    2647           0       947.339905   1756.606445  -22125.00000     43.107590
    2648           0       947.339905   1756.606445  -22375.00000     40.227222
    2649           0       947.339905   1756.606445  -22625.00000     37.302628
    2650           0       947.339905   1756.606445  -22875.00000     34.389160
    2651           0       947.339905   1756.606445  -23125.00000     31.421803
    2652           0       947.339905   1756.606445  -23375.00000     28.502974
    2653           0       947.339905   1756.606445  -23625.00000     25.506432
    2654           0       947.339905   1756.606445  -23875.00000     22.626328
    2655           0       947.339905   1756.606445  -24125.00000     19.619276
    2656           0       947.339905   1756.606445  -24375.00000     16.860235
    2657           0       947.339905   1756.606445  -24625.00000     13.882797
    2658           0       947.339905   1756.606445  -24875.00000     11.436746
    2659           0       947.339905   1756.606445  -25125.00000      8.655690
    2660           0       947.339905   1756.606445  -25375.00000      7.080215
    2661           0       947.339905   1756.606445  -25625.00000      5.674339
    2662           0       947.339905   1756.606445  -25875.00000      5.213206
    2663           0       842.020020   1805.718018  -13625.00000    115.398468
    2664           0       842.020020   1805.718018  -13875.00000    133.463181
    2665           0       842.020020   1805.718018  -14125.00000    121.686264
    2666           0       842.020020   1805.718018  -14375.00000    120.441048
    2667           0       842.020020   1805.718018  -14625.00000    118.145233
    2668           0       842.020020   1805.718018  -14875.00000    115.123390
    2669           0       842.020020   1805.718018  -15125.00000    112.737907
    2670           0       842.020020   1805.718018  -15375.00000    109.994278
    2671           0       842.020020   1805.718018  -15625.00000    107.506622
    2672           0       842.020020   1805.718018  -15875.00000    104.860069
    2673           0       842.020020   1805.718018  -16125.00000    102.357529
    2674           0       842.020020   1805.718018  -16375.00000     99.771477
    2675           0       842.020020   1805.718018  -16625.00000     97.272102
    2676           0       842.020020   1805.718018  -16875.00000     94.731598
    2677           0       842.020020   1805.718018  -17125.00000     92.244774
    2678           0       842.020020   1805.718018  -17375.00000     89.739723
    2679           0       842.020020   1805.718018  -17625.00000     87.268700
    2680           0       842.020020   1805.718018  -17875.00000     84.790245
    2681           0       842.020020   1805.718018  -18125.00000     82.332367
    2682           0       842.020020   1805.718018  -18375.00000     79.869843
    2683           0       842.020020   1805.718018  -18625.00000     77.416870
    2684           0       842.020020   1805.718018  -18875.00000     74.956680
    2685           0       842.020020   1805.718018  -19125.00000     72.495949
    2686           0       842.020020   1805.718018  -19375.00000     70.022820
    2687           0       842.020020   1805.718018  -19625.00000     67.540489
    2688           0       842.020020   1805.718018  -19875.00000     65.039955
    2689           0       842.020020   1805.718018  -20125.00000     62.523811
    2690           0       842.020020   1805.718018  -20375.00000     59.984509
    2691           0       842.020020   1805.718018  -20625.00000     57.426643
    2692           0       842.020020   1805.718018  -20875.00000     54.842434
    2693           0       842.020020   1805.718018  -21125.00000     52.240486
    2694           0       842.020020   1805.718018  -21375.00000     49.610386
    2695           0       842.020020   1805.718018  -21625.00000     46.967533
    2696           0       842.020020   1805.718018  -21875.00000     44.294670
    2697           0       842.020020   1805.718018  -22125.00000     41.618797
    2698           0       842.020020   1805.718018  -22375.00000     38.908813
    2699           0       842.020020   1805.718018  -22625.00000     36.212093
    2700           0       842.020020   1805.718018  -22875.00000     33.471764
    2701           0       842.020020   1805.718018  -23125.00000     30.771709
    2702           0       842.020020   1805.718018  -23375.00000     28.008335
    2703           0       842.020020   1805.718018  -23625.00000     25.330982
    2704           0       842.020020   1805.718018  -23875.00000     22.552343
    2705           0       842.020020   1805.718018  -24125.00000     19.938534
    2706           0       842.020020   1805.718018  -24375.00000     17.155005
    2707           0       842.019897   1805.718018  -24625.00000     14.673782
    2708           0       842.019897   1805.718018  -24875.00000     11.915088
    2709           0       842.019897   1805.718018  -25125.00000      9.715681
    2710           0       842.019897   1805.718018  -25375.00000      7.117889
    2711           0       842.019897   1805.718018  -25625.00000      5.857908
    2712           0       842.020020   1805.718018  -25875.00000      3.638743
    2713           0       736.700073   1854.829468  -13625.00000    126.855476
    2714           0       736.700073   1854.829468  -13875.00000    134.195801
    2715           0       736.700073   1854.829468  -14125.00000    128.517044
    2716           0       736.700073   1854.829468  -14375.00000    125.963806
    2717           0       736.700073   1854.829468  -14625.00000    122.575760
    2718           0       736.700073   1854.829468  -14875.00000    119.782227
    2719           0       736.700073   1854.829468  -15125.00000    116.548309
    2720           0       736.700073   1854.829468  -15375.00000    113.656769
    2721           0       736.700073   1854.829468  -15625.00000    110.551254
    2722           0       736.700073   1854.829468  -15875.00000    107.621307
    2723           0       736.700073   1854.829468  -16125.00000    104.593758
    2724           0       736.700073   1854.829468  -16375.00000    101.664864
    2725           0       736.700073   1854.829468  -16625.00000     98.695557
    2726           0       736.700073   1854.829468  -16875.00000     95.788071
    2727           0       736.700073   1854.829468  -17125.00000     92.870918
    2728           0       736.700073   1854.829468  -17375.00000     89.998253
    2729           0       736.700073   1854.829468  -17625.00000     87.133339
    2730           0       736.700073   1854.829468  -17875.00000     84.305305
    2731           0       736.700073   1854.829468  -18125.00000     81.495148
    2732           0       736.700073   1854.829468  -18375.00000     78.718559
    2733           0       736.700073   1854.829468  -18625.00000     75.965164
    2734           0       736.700073   1854.829468  -18875.00000     73.243103
    2735           0       736.700073   1854.829468  -19125.00000     70.545761
    2736           0       736.700073   1854.829468  -19375.00000     67.877060
    2737           0       736.700073   1854.829468  -19625.00000     65.231514
    2738           0       736.700073   1854.829468  -19875.00000     62.610931
    2739           0       736.700073   1854.829468  -20125.00000     60.009804
    2740           0       736.700073   1854.829468  -20375.00000     57.429512
    2741           0       736.700073   1854.829468  -20625.00000     54.863762
    2742           0       736.700073   1854.829468  -20875.00000     52.315079
    2743           0       736.700073   1854.829468  -21125.00000     49.775490
    2744           0       736.700073   1854.829468  -21375.00000     47.250641
    2745           0       736.700073   1854.829468  -21625.00000     44.729313
    2746           0       736.700073   1854.829468  -21875.00000     42.222996
    2747           0       736.700073   1854.829468  -22125.00000     39.714565
    2748           0       736.700073   1854.829468  -22375.00000     37.225594
    2749           0       736.700073   1854.829468  -22625.00000     34.728287
    2750           0       736.700073   1854.829468  -22875.00000     32.261189
    2751           0       736.700073   1854.829468  -23125.00000     29.777557
    2752           0       736.700073   1854.829468  -23375.00000     27.343985
    2753           0       736.700073   1854.829468  -23625.00000     24.880865
    2754           0       736.700073   1854.829468  -23875.00000     22.500547
    2755           0       736.700073   1854.829468  -24125.00000     20.068491
    2756           0       736.700073   1854.829468  -24375.00000     17.769938
    2757           0       736.700073   1854.829468  -24625.00000     15.386137
    2758           0       736.700073   1854.829468  -24875.00000     13.201566
    2759           0       736.700073   1854.829468  -25125.00000     10.929365
    2760           0       736.700073   1854.829468  -25375.00000      8.837634
    2761           0       736.700073   1854.829468  -25625.00000      7.104843
    2762           0       736.700073   1854.829468  -25875.00000      4.429555
    2763           0       627.916199   1894.423584  -13625.00000    128.127197
    2764           0       627.916199   1894.423584  -13875.00000    139.430389
    2765           0       627.916199   1894.423584  -14125.00000    131.789246
    2766           0       627.916199   1894.423584  -14375.00000    129.000336
    2767           0       627.916199   1894.423584  -14625.00000    125.460564
    2768           0       627.916199   1894.423584  -14875.00000    122.213745
    2769           0       627.916199   1894.423584  -15125.00000    118.725716
    2770           0       627.916199   1894.423584  -15375.00000    115.485336
    2771           0       627.916199   1894.423584  -15625.00000    112.088379
    2772           0       627.916199   1894.423584  -15875.00000    108.845917
    2773           0       627.916199   1894.423584  -16125.00000    105.526016
    2774           0       627.916199   1894.423584  -16375.00000    102.307213
    2775           0       627.916199   1894.423584  -16625.00000     99.056236
    2776           0       627.916199   1894.423584  -16875.00000     95.878662
    2777           0       627.916199   1894.423584  -17125.00000     92.697334
    2778           0       627.916199   1894.423584  -17375.00000     89.575569
    2779           0       627.916199   1894.423584  -17625.00000     86.469261
    2780           0       627.916199   1894.423584  -17875.00000     83.416924
    2781           0       627.916199   1894.423584  -18125.00000     80.393692
    2782           0       627.916199   1894.423584  -18375.00000     77.423180
    2783           0       627.916199   1894.423584  -18625.00000     74.491371
    2784           0       627.916199   1894.423584  -18875.00000     71.612480
    2785           0       627.916199   1894.423584  -19125.00000     68.778130
    2786           0       627.916199   1894.423584  -19375.00000     65.996338
    2787           0       627.916199   1894.423584  -19625.00000     63.260994
    2788           0       627.916199   1894.423584  -19875.00000     60.576168
    2789           0       627.916199   1894.423584  -20125.00000     57.936447
    2790           0       627.916199   1894.423584  -20375.00000     55.343418
    2791           0       627.916199   1894.423584  -20625.00000     52.791389
    2792           0       627.916199   1894.423584  -20875.00000     50.281193
    2793           0       627.916199   1894.423584  -21125.00000     47.805992
    2794           0       627.916199   1894.423584  -21375.00000     45.368000
    2795           0       627.916199   1894.423584  -21625.00000     42.957958
    2796           0       627.916199   1894.423584  -21875.00000     40.582451
    2797           0       627.916199   1894.423584  -22125.00000     38.227264
    2798           0       627.916199   1894.423584  -22375.00000     35.908138
    2799           0       627.916199   1894.423584  -22625.00000     33.600685
    2800           0       627.916199   1894.423584  -22875.00000     31.337900
    2801           0       627.916199   1894.423584  -23125.00000     29.074865
    2802           0       627.916199   1894.423584  -23375.00000     26.876381
    2803           0       627.916199   1894.423584  -23625.00000     24.657015
    2804           0       627.916199   1894.423584  -23875.00000     22.540300
    2805           0       627.916199   1894.423584  -24125.00000     20.362827
    2806           0       627.916199   1894.423584  -24375.00000     18.357336
    2807           0       627.916199   1894.423584  -24625.00000     16.212328
    2808           0       627.916199   1894.423584  -24875.00000     14.368523
    2809           0       627.916199   1894.423584  -25125.00000     12.236099
    2810           0       627.916199   1894.423584  -25375.00000     10.545963
    2811           0       627.916199   1894.423584  -25625.00000      9.001320
    2812           0       627.916199   1894.423584  -25875.00000      5.551389
    2813           0       515.668213   1924.500366  -13625.00000    126.047386
    2814           0       515.668213   1924.500366  -13875.00000    145.895477
    2815           0       515.668213   1924.500366  -14125.00000    132.008148
    2816           0       515.668213   1924.500366  -14375.00000    129.866425
    2817           0       515.668213   1924.500366  -14625.00000    126.672142
    2818           0       515.668213   1924.500366  -14875.00000    122.575020
    2819           0       515.668213   1924.500366  -15125.00000    119.275528
    2820           0       515.668213   1924.500366  -15375.00000    115.532310
    2821           0       515.668213   1924.500366  -15625.00000    112.129631
    2822           0       515.668213   1924.500366  -15875.00000    108.534798
    2823           0       515.668213   1924.500366  -16125.00000    105.140610
    2824           0       515.668213   1924.500366  -16375.00000    101.656143
    2825           0       515.668213   1924.500366  -16625.00000     98.303085
    2826           0       515.668213   1924.500366  -16875.00000     94.919220
    2827           0       515.668213   1924.500366  -17125.00000     91.630043
    2828           0       515.668213   1924.500366  -17375.00000     88.345772
    2829           0       515.668213   1924.500366  -17625.00000     85.138252
    2830           0       515.668213   1924.500366  -17875.00000     81.958054
    2831           0       515.668213   1924.500366  -18125.00000     78.846947
    2832           0       515.668213   1924.500366  -18375.00000     75.777809
    2833           0       515.668213   1924.500366  -18625.00000     72.775291
    2834           0       515.668213   1924.500366  -18875.00000     69.824203
    2835           0       515.668213   1924.500366  -19125.00000     66.939102
    2836           0       515.668213   1924.500366  -19375.00000     64.110802
    2837           0       515.668213   1924.500366  -19625.00000     61.347687
    2838           0       515.668213   1924.500366  -19875.00000     58.643078
    2839           0       515.668152   1924.500366  -20125.00000     56.001854
    2840           0       515.668152   1924.500366  -20375.00000     53.417587
    2841           0       515.668152   1924.500366  -20625.00000     50.893761
    2842           0       515.668152   1924.500366  -20875.00000     48.422585
    2843           0       515.668152   1924.500366  -21125.00000     46.008450
    2844           0       515.668152   1924.500366  -21375.00000     43.640400
    2845           0       515.668152   1924.500366  -21625.00000     41.326839
    2846           0       515.668152   1924.500366  -21875.00000     39.050724
    2847           0       515.668152   1924.500366  -22125.00000     36.829292
    2848           0       515.668152   1924.500366  -22375.00000     34.634045
    2849           0       515.668152   1924.500366  -22625.00000     32.499100
    2850           0       515.668152   1924.500366  -22875.00000     30.374380
    2851           0       515.668152   1924.500366  -23125.00000     28.325045
    2852           0       515.668152   1924.500366  -23375.00000     26.260622
    2853           0       515.668152   1924.500366  -23625.00000     24.302729
    2854           0       515.668152   1924.500366  -23875.00000     22.286108
    2855           0       515.668152   1924.500366  -24125.00000     20.434713
    2856           0       515.668152   1924.500366  -24375.00000     18.447330
    2857           0       515.668152   1924.500366  -24625.00000     16.729744
    2858           0       515.668152   1924.500366  -24875.00000     14.739488
    2859           0       515.668152   1924.500366  -25125.00000     13.256144
    2860           0       515.668152   1924.500366  -25375.00000     10.931364
    2861           0       515.668152   1924.500366  -25625.00000     10.789962
    2862           0       515.668152   1924.500366  -25875.00000      6.835967
    2863           0       403.420227   1954.577148  -13625.00000    135.458084
    2864           0       403.420227   1954.577148  -13875.00000    144.267441
    2865           0       403.420227   1954.577148  -14125.00000    136.860031
    2866           0       403.420227   1954.577148  -14375.00000    133.592300
    2867           0       403.420227   1954.577148  -14625.00000    129.364899
    2868           0       403.420227   1954.577148  -14875.00000    125.741386
    2869           0       403.420227   1954.577148  -15125.00000    121.697662
    2870           0       403.420227   1954.577148  -15375.00000    118.026588
    2871           0       403.420227   1954.577148  -15625.00000    114.147995
    2872           0       403.420227   1954.577148  -15875.00000    110.481461
    2873           0       403.420227   1954.577148  -16125.00000    106.728760
    2874           0       403.420227   1954.577148  -16375.00000    103.110786
    2875           0       403.420227   1954.577148  -16625.00000     99.470016
    2876           0       403.420227   1954.577148  -16875.00000     95.926796
    2877           0       403.420227   1954.577148  -17125.00000     92.397057
    2878           0       403.420227   1954.577148  -17375.00000     88.947701
    2879           0       403.420227   1954.577148  -17625.00000     85.534027
    2880           0       403.420227   1954.577148  -17875.00000     82.194077
    2881           0       403.420227   1954.577148  -18125.00000     78.904404
    2882           0       403.420227   1954.577148  -18375.00000     75.687263
    2883           0       403.420227   1954.577148  -18625.00000     72.530548
    2884           0       403.420227   1954.577148  -18875.00000     69.447647
    2885           0       403.420227   1954.577148  -19125.00000     66.432289
    2886           0       403.420227   1954.577148  -19375.00000     63.492722
    2887           0       403.420227   1954.577148  -19625.00000     60.625221
    2888           0       403.420227   1954.577148  -19875.00000     57.835007
    2889           0       403.420197   1954.577148  -20125.00000     55.118908
    2890           0       403.420197   1954.577148  -20375.00000     52.480503
    2891           0       403.420197   1954.577148  -20625.00000     49.915867
    2892           0       403.420197   1954.577148  -20875.00000     47.428261
    2893           0       403.420197   1954.577148  -21125.00000     45.011868
    2894           0       403.420197   1954.577148  -21375.00000     42.671345
    2895           0       403.420197   1954.577148  -21625.00000     40.397415
    2896           0       403.420197   1954.577148  -21875.00000     38.198689
    2897           0       403.420197   1954.577148  -22125.00000     36.059765
    2898           0       403.420197   1954.577148  -22375.00000     33.997299
    2899           0       403.420197   1954.577148  -22625.00000     31.984812
    2900           0       403.420197   1954.577148  -22875.00000     30.053947
    2901           0       403.420197   1954.577148  -23125.00000     28.158144
    2902           0       403.420197   1954.577148  -23375.00000     26.356188
    2903           0       403.420197   1954.577148  -23625.00000     24.565298
    2904           0       403.420197   1954.577148  -23875.00000     22.892971
    2905           0       403.420197   1954.577148  -24125.00000     21.191475
    2906           0       403.420197   1954.577148  -24375.00000     19.655212
    2907           0       403.420197   1954.577148  -24625.00000     18.022030
    2908           0       403.420197   1954.577148  -24875.00000     16.634005
    2909           0       403.420197   1954.577148  -25125.00000     15.058008
    2910           0       403.420197   1954.577148  -25375.00000     13.758875
    2911           0       403.420197   1954.577148  -25625.00000     12.698212
    2912           0       403.420197   1954.577148  -25875.00000      9.528825
    2913           0       289.413513   1974.679565  -13625.00000    135.882645
    2914           0       289.413513   1974.679565  -13875.00000    146.065491
    2915           0       289.413513   1974.679565  -14125.00000    137.930908
    2916           0       289.413513   1974.679565  -14375.00000    134.526718
    2917           0       289.413513   1974.679565  -14625.00000    130.210419
    2918           0       289.413513   1974.679565  -14875.00000    126.390030
    2919           0       289.413513   1974.679565  -15125.00000    122.224228
    2920           0       289.413513   1974.679565  -15375.00000    118.402344
    2921           0       289.413513   1974.679565  -15625.00000    114.396690
    2922           0       289.413513   1974.679565  -15875.00000    110.601021
    2923           0       289.413513   1974.679565  -16125.00000    106.730286
    2924           0       289.413513   1974.679565  -16375.00000    103.000618
    2925           0       289.413513   1974.679565  -16625.00000     99.255341
    2926           0       289.413513   1974.679565  -16875.00000     95.616859
    2927           0       289.413513   1974.679565  -17125.00000     91.998108
    2928           0       289.413513   1974.679565  -17375.00000     88.469460
    2929           0       289.413513   1974.679565  -17625.00000     84.982651
    2930           0       289.413513   1974.679565  -17875.00000     81.578751
    2931           0       289.413513   1974.679565  -18125.00000     78.231201
    2932           0       289.413513   1974.679565  -18375.00000     74.964355
    2933           0       289.413513   1974.679565  -18625.00000     71.763794
    2934           0       289.413513   1974.679565  -18875.00000     68.644249
    2935           0       289.413513   1974.679565  -19125.00000     65.597984
    2936           0       289.413513   1974.679565  -19375.00000     62.634056
    2937           0       289.413513   1974.679565  -19625.00000     59.748158
    2938           0       289.413513   1974.679565  -19875.00000     56.946041
    2939           0       289.413513   1974.679565  -20125.00000     54.224743
    2940           0       289.413513   1974.679565  -20375.00000     51.588173
    2941           0       289.413513   1974.679565  -20625.00000     49.033447
    2942           0       289.413513   1974.679565  -20875.00000     46.563755
    2943           0       289.413513   1974.679565  -21125.00000     44.175114
    2944           0       289.413513   1974.679565  -21375.00000     41.871365
    2945           0       289.413513   1974.679565  -21625.00000     39.645943
    2946           0       289.413513   1974.679565  -21875.00000     37.505238
    2947           0       289.413513   1974.679565  -22125.00000     35.437809
    2948           0       289.413513   1974.679565  -22375.00000     33.455700
    2949           0       289.413513   1974.679565  -22625.00000     31.538450
    2950           0       289.413513   1974.679565  -22875.00000     29.709356
    2951           0       289.413513   1974.679565  -23125.00000     27.931536
    2952           0       289.413513   1974.679565  -23375.00000     26.249540
    2953           0       289.413544   1974.679565  -23625.00000     24.596895
    2954           0       289.413544   1974.679565  -23875.00000     23.057232
    2955           0       289.413544   1974.679565  -24125.00000     21.511290
    2956           0       289.413544   1974.679565  -24375.00000     20.113060
    2957           0       289.413544   1974.679565  -24625.00000     18.648956
    2958           0       289.413544   1974.679565  -24875.00000     17.402578
    2959           0       289.413544   1974.679565  -25125.00000     16.001154
    2960           0       289.413544   1974.679565  -25375.00000     14.785753
    2961           0       289.413544   1974.679565  -25625.00000     14.275418
    2962           0       289.413513   1974.679565  -25875.00000     10.720399
    2963           0       173.648041   1984.807617  -13625.00000    129.740326
    2964           0       173.648041   1984.807617  -13875.00000    150.180283
    2965           0       173.648041   1984.807617  -14125.00000    135.377518
    2966           0       173.648041   1984.807617  -14375.00000    132.782455
    2967           0       173.648041   1984.807617  -14625.00000    129.148209
    2968           0       173.648041   1984.807617  -14875.00000    124.549202
    2969           0       173.648041   1984.807617  -15125.00000    120.817642
    2970           0       173.648041   1984.807617  -15375.00000    116.620934
    2971           0       173.648041   1984.807617  -15625.00000    112.805321
    2972           0       173.648041   1984.807617  -15875.00000    108.796982
    2973           0       173.648056   1984.807617  -16125.00000    105.020554
    2974           0       173.648056   1984.807617  -16375.00000    101.163361
    2975           0       173.648056   1984.807617  -16625.00000     97.464592
    2976           0       173.648056   1984.807617  -16875.00000     93.750267
    2977           0       173.648056   1984.807617  -17125.00000     90.155342
    2978           0       173.648056   1984.807617  -17375.00000     86.583420
    2979           0       173.648056   1984.807617  -17625.00000     83.111267
    2980           0       173.648056   1984.807617  -17875.00000     79.685455
    2981           0       173.648056   1984.807617  -18125.00000     76.350113
    2982           0       173.648056   1984.807617  -18375.00000     73.075752
    2983           0       173.648056   1984.807617  -18625.00000     69.888084
    2984           0       173.648056   1984.807617  -18875.00000     66.770821
    2985           0       173.648056   1984.807617  -19125.00000     63.739399
    2986           0       173.648056   1984.807617  -19375.00000     60.784622
    2987           0       173.648056   1984.807617  -19625.00000     57.916271
    2988           0       173.648041   1984.807617  -19875.00000     55.128799
    2989           0       173.648041   1984.807617  -20125.00000     52.428909
    2990           0       173.648041   1984.807617  -20375.00000     49.812420
    2991           0       173.648041   1984.807617  -20625.00000     47.285053
    2992           0       173.648041   1984.807617  -20875.00000     44.841831
    2993           0       173.648041   1984.807617  -21125.00000     42.489273
    2994           0       173.648041   1984.807617  -21375.00000     40.219501
    2995           0       173.648041   1984.807617  -21625.00000     38.042122
    2996           0       173.648041   1984.807617  -21875.00000     35.943081
    2997           0       173.648041   1984.807617  -22125.00000     33.939030
    2998           0       173.648041   1984.807617  -22375.00000     32.004311
    2999           0       173.648041   1984.807617  -22625.00000     30.169691
    3000           0       173.648041   1984.807617  -22875.00000     28.388351
    3001           0       173.648041   1984.807617  -23125.00000     26.718143
    3002           0       173.648041   1984.807617  -23375.00000     25.073881
    3003           0       173.648056   1984.807617  -23625.00000     23.564034
    3004           0       173.648056   1984.807617  -23875.00000     22.033939
    3005           0       173.648056   1984.807617  -24125.00000     20.685125
    3006           0       173.648056   1984.807617  -24375.00000     19.238586
    3007           0       173.648056   1984.807617  -24625.00000     18.058359
    3008           0       173.648056   1984.807617  -24875.00000     16.656439
    3009           0       173.648056   1984.807617  -25125.00000     15.726720
    3010           0       173.648056   1984.807617  -25375.00000     13.958733
    3011           0       173.648056   1984.807617  -25625.00000     14.657405
    3012           0       173.648041   1984.807617  -25875.00000     10.743533
    3013           0        57.882576   1994.935791  -13625.00000    135.775681
    3014           0        57.882576   1994.935791  -13875.00000    145.908112
    3015           0        57.882576   1994.935791  -14125.00000    137.591858
    3016           0        57.882576   1994.935791  -14375.00000    134.084229
    3017           0        57.882576   1994.935791  -14625.00000    129.650711
    3018           0        57.882576   1994.935791  -14875.00000    125.721039
    3019           0        57.882576   1994.935791  -15125.00000    121.456573
    3020           0        57.882576   1994.935791  -15375.00000    117.541191
    3021           0        57.882576   1994.935791  -15625.00000    113.453545
    3022           0        57.882576   1994.935791  -15875.00000    109.582649
    3023           0        57.882576   1994.935791  -16125.00000    105.648911
    3024           0        57.882576   1994.935791  -16375.00000    101.864182
    3025           0        57.882576   1994.935791  -16625.00000     98.076164
    3026           0        57.882576   1994.935791  -16875.00000     94.403625
    3027           0        57.882576   1994.935791  -17125.00000     90.762527
    3028           0        57.882576   1994.935791  -17375.00000     87.220146
    3029           0        57.882576   1994.935791  -17625.00000     83.730087
    3030           0        57.882576   1994.935791  -17875.00000     80.330673
    3031           0        57.882576   1994.935791  -18125.00000     76.996201
    3032           0        57.882576   1994.935791  -18375.00000     73.748611
    3033           0        57.882576   1994.935791  -18625.00000     70.573578
    3034           0        57.882576   1994.935791  -18875.00000     67.483772
    3035           0        57.882576   1994.935791  -19125.00000     64.471230
    3036           0        57.882576   1994.935791  -19375.00000     61.543503
    3037           0        57.882568   1994.935791  -19625.00000     58.696011
    3038           0        57.882565   1994.935791  -19875.00000     55.933907
    3039           0        57.882565   1994.935791  -20125.00000     53.254280
    3040           0        57.882565   1994.935791  -20375.00000     50.661446
    3041           0        57.882565   1994.935791  -20625.00000     48.152744
    3042           0        57.882565   1994.935791  -20875.00000     45.732750
    3043           0        57.882565   1994.935791  -21125.00000     43.397724
    3044           0        57.882565   1994.935791  -21375.00000     41.153629
    3045           0        57.882565   1994.935791  -21625.00000     38.993542
    3046           0        57.882565   1994.935791  -21875.00000     36.926758
    3047           0        57.882565   1994.935791  -22125.00000     34.939869
    3048           0        57.882565   1994.935791  -22375.00000     33.049229
    3049           0        57.882565   1994.935791  -22625.00000     31.229475
    3050           0        57.882565   1994.935791  -22875.00000     29.511091
    3051           0        57.882565   1994.935791  -23125.00000     27.847086
    3052           0        57.882565   1994.935791  -23375.00000     26.295469
    3053           0        57.882565   1994.935791  -23625.00000     24.769825
    3054           0        57.882565   1994.935791  -23875.00000     23.380508
    3055           0        57.882565   1994.935791  -24125.00000     21.968863
    3056           0        57.882565   1994.935791  -24375.00000     20.743013
    3057           0        57.882565   1994.935791  -24625.00000     19.412224
    3058           0        57.882565   1994.935791  -24875.00000     18.362862
    3059           0        57.882565   1994.935791  -25125.00000     17.072762
    3060           0        57.882565   1994.935791  -25375.00000     16.179890
    3061           0        57.882565   1994.935791  -25625.00000     15.318131
    3062           0        57.882568   1994.935791  -25875.00000     12.562517
    3063           0       -57.882874   1994.935791  -13625.00000    135.330261
    3064           0       -57.882874   1994.935791  -13875.00000    143.856384
    3065           0       -57.882874   1994.935791  -14125.00000    136.207474
    3066           0       -57.882874   1994.935791  -14375.00000    132.684982
    3067           0       -57.882874   1994.935791  -14625.00000    128.224869
    3068           0       -57.882874   1994.935791  -14875.00000    124.376877
    3069           0       -57.882874   1994.935791  -15125.00000    120.123611
    3070           0       -57.882874   1994.935791  -15375.00000    116.256767
    3071           0       -57.882874   1994.935791  -15625.00000    112.196915
    3072           0       -57.882874   1994.935791  -15875.00000    108.366585
    3073           0       -57.882874   1994.935791  -16125.00000    104.465485
    3074           0       -57.882874   1994.935791  -16375.00000    100.718475
    3075           0       -57.882874   1994.935791  -16625.00000     96.965271
    3076           0       -57.882874   1994.935791  -16875.00000     93.329399
    3077           0       -57.882874   1994.935791  -17125.00000     89.724098
    3078           0       -57.882874   1994.935791  -17375.00000     86.218201
    3079           0       -57.882874   1994.935791  -17625.00000     82.764503
    3080           0       -57.882874   1994.935791  -17875.00000     79.401733
    3081           0       -57.882874   1994.935791  -18125.00000     76.104050
    3082           0       -57.882874   1994.935791  -18375.00000     72.893417
    3083           0       -57.882874   1994.935791  -18625.00000     69.755577
    3084           0       -57.882874   1994.935791  -18875.00000     66.703125
    3085           0       -57.882874   1994.935791  -19125.00000     63.728046
    3086           0       -57.882874   1994.935791  -19375.00000     60.838078
    3087           0       -57.882874   1994.935791  -19625.00000     58.028385
    3088           0       -57.882881   1994.935791  -19875.00000     55.304043
    3089           0       -57.882881   1994.935791  -20125.00000     52.662479
    3090           0       -57.882881   1994.935791  -20375.00000     50.107403
    3091           0       -57.882881   1994.935791  -20625.00000     47.636627
    3092           0       -57.882881   1994.935791  -20875.00000     45.254128
    3093           0       -57.882881   1994.935791  -21125.00000     42.956863
    3094           0       -57.882881   1994.935791  -21375.00000     40.749668
    3095           0       -57.882881   1994.935791  -21625.00000     38.627193
    3096           0       -57.882881   1994.935791  -21875.00000     36.596355
    3097           0       -57.882881   1994.935791  -22125.00000     34.647224
    3098           0       -57.882881   1994.935791  -22375.00000     32.791092
    3099           0       -57.882881   1994.935791  -22625.00000     31.010004
    3100           0       -57.882881   1994.935791  -22875.00000     29.323809
    3101           0       -57.882881   1994.935791  -23125.00000     27.701006
    3102           0       -57.882881   1994.935791  -23375.00000     26.177353
    3103           0       -57.882881   1994.935791  -23625.00000     24.698713
    3104           0       -57.882885   1994.935791  -23875.00000     23.329031
    3105           0       -57.882889   1994.935791  -24125.00000     21.976681
    3106           0       -57.882889   1994.935791  -24375.00000     20.753614
    3107           0       -57.882889   1994.935791  -24625.00000     19.506237
    3108           0       -57.882889   1994.935791  -24875.00000     18.427652
    3109           0       -57.882889   1994.935791  -25125.00000     17.284706
    3110           0       -57.882889   1994.935791  -25375.00000     16.186989
    3111           0       -57.882889   1994.935791  -25625.00000     16.036602
    3112           0       -57.882881   1994.935791  -25875.00000     12.592694
    3113           0      -173.648315   1984.807617  -13625.00000    125.691467
    3114           0      -173.648315   1984.807617  -13875.00000    145.386703
    3115           0      -173.648315   1984.807617  -14125.00000    131.026520
    3116           0      -173.648300   1984.807617  -14375.00000    128.507385
    3117           0      -173.648300   1984.807617  -14625.00000    124.945992
    3118           0      -173.648300   1984.807617  -14875.00000    120.481033
    3119           0      -173.648300   1984.807617  -15125.00000    116.838890
    3120           0      -173.648300   1984.807617  -15375.00000    112.760078
    3121           0      -173.648300   1984.807617  -15625.00000    109.043579
    3122           0      -173.648300   1984.807617  -15875.00000    105.148193
    3123           0      -173.648300   1984.807617  -16125.00000    101.474922
    3124           0      -173.648300   1984.807617  -16375.00000     97.728500
    3125           0      -173.648300   1984.807617  -16625.00000     94.135368
    3126           0      -173.648300   1984.807617  -16875.00000     90.530937
    3127           0      -173.648285   1984.807617  -17125.00000     87.043327
    3128           0      -173.648285   1984.807617  -17375.00000     83.581238
    3129           0      -173.648285   1984.807617  -17625.00000     80.217751
    3130           0      -173.648285   1984.807617  -17875.00000     76.902237
    3131           0      -173.648285   1984.807617  -18125.00000     73.676865
    3132           0      -173.648285   1984.807617  -18375.00000     70.513611
    3133           0      -173.648285   1984.807617  -18625.00000     67.437164
    3134           0      -173.648285   1984.807617  -18875.00000     64.432053
    3135           0      -173.648285   1984.807617  -19125.00000     61.512894
    3136           0      -173.648285   1984.807617  -19375.00000     58.671440
    3137           0      -173.648270   1984.807617  -19625.00000     55.916393
    3138           0      -173.648285   1984.807617  -19875.00000     53.242599
    3139           0      -173.648285   1984.807617  -20125.00000     50.656937
    3140           0      -173.648285   1984.807617  -20375.00000     48.154465
    3141           0      -173.648285   1984.807617  -20625.00000     45.741207
    3142           0      -173.648285   1984.807617  -20875.00000     43.411968
    3143           0      -173.648270   1984.807617  -21125.00000     41.173119
    3144           0      -173.648254   1984.807617  -21375.00000     39.016750
    3145           0      -173.648254   1984.807617  -21625.00000     36.952354
    3146           0      -173.648254   1984.807617  -21875.00000     34.965969
    3147           0      -173.648254   1984.807617  -22125.00000     33.074100
    3148           0      -173.648254   1984.807617  -22375.00000     31.251440
    3149           0      -173.648254   1984.807617  -22625.00000     29.528406
    3150           0      -173.648254   1984.807617  -22875.00000     27.859118
    3151           0      -173.648254   1984.807617  -23125.00000     26.300344
    3152           0      -173.648254   1984.807617  -23375.00000     24.769135
    3153           0      -173.648254   1984.807617  -23625.00000     23.371019
    3154           0      -173.648254   1984.807617  -23875.00000     21.956535
    3155           0      -173.648254   1984.807617  -24125.00000     20.719717
    3156           0      -173.648254   1984.807617  -24375.00000     19.393620
    3157           0      -173.648254   1984.807617  -24625.00000     18.324223
    3158           0      -173.648254   1984.807617  -24875.00000     17.052458
    3159           0      -173.648254   1984.807617  -25125.00000     16.218578
    3160           0      -173.648239   1984.807617  -25375.00000     14.637384
    3161           0      -173.648239   1984.807617  -25625.00000     15.297294
    3162           0      -173.648285   1984.807617  -25875.00000     11.748497
    3163           0      -289.413757   1974.679443  -13625.00000    127.810478
    3164           0      -289.413757   1974.679443  -13875.00000    138.896149
    3165           0      -289.413757   1974.679443  -14125.00000    130.558731
    3166           0      -289.413757   1974.679443  -14375.00000    127.322083
    3167           0      -289.413757   1974.679443  -14625.00000    123.276665
    3168           0      -289.413757   1974.679443  -14875.00000    119.561577
    3169           0      -289.413757   1974.679443  -15125.00000    115.617363
    3170           0      -289.413757   1974.679443  -15375.00000    111.946060
    3171           0      -289.413757   1974.679443  -15625.00000    108.136803
    3172           0      -289.413757   1974.679443  -15875.00000    104.507286
    3173           0      -289.413757   1974.679443  -16125.00000    100.824028
    3174           0      -289.413757   1974.679443  -16375.00000     97.267693
    3175           0      -289.413757   1974.679443  -16625.00000     93.706085
    3176           0      -289.413727   1974.679443  -16875.00000     90.244804
    3177           0      -289.413727   1974.679443  -17125.00000     86.808449
    3178           0      -289.413727   1974.679443  -17375.00000     83.459389
    3179           0      -289.413727   1974.679443  -17625.00000     80.155037
    3180           0      -289.413727   1974.679443  -17875.00000     76.932518
    3181           0      -289.413727   1974.679443  -18125.00000     73.768135
    3182           0      -289.413727   1974.679443  -18375.00000     70.684250
    3183           0      -289.413727   1974.679443  -18625.00000     67.667908
    3184           0      -289.413727   1974.679443  -18875.00000     64.732773
    3185           0      -289.413727   1974.679443  -19125.00000     61.871685
    3186           0      -289.413727   1974.679443  -19375.00000     59.093380
    3187           0      -289.413727   1974.679443  -19625.00000     56.393360
    3188           0      -289.413727   1974.679443  -19875.00000     53.777302
    3189           0      -289.413727   1974.679443  -20125.00000     51.242268
    3190           0      -289.413727   1974.679443  -20375.00000     48.791664
    3191           0      -289.413727   1974.679443  -20625.00000     46.422592
    3192           0      -289.413727   1974.679443  -20875.00000     44.138332
    3193           0      -289.413696   1974.679443  -21125.00000     41.934189
    3194           0      -289.413696   1974.679443  -21375.00000     39.814930
    3195           0      -289.413696   1974.679443  -21625.00000     37.772476
    3196           0      -289.413696   1974.679443  -21875.00000     35.815491
    3197           0      -289.413696   1974.679443  -22125.00000     33.929398
    3198           0      -289.413696   1974.679443  -22375.00000     32.131180
    3199           0      -289.413696   1974.679443  -22625.00000     30.393799
    3200           0      -289.413696   1974.679443  -22875.00000     28.750727
    3201           0      -289.413696   1974.679443  -23125.00000     27.151375
    3202           0      -289.413696   1974.679443  -23375.00000     25.660921
    3203           0      -289.413696   1974.679443  -23625.00000     24.184523
    3204           0      -289.413696   1974.679443  -23875.00000     22.847534
    3205           0      -289.413666   1974.679443  -24125.00000     21.472324
    3206           0      -289.413666   1974.679443  -24375.00000     20.296959
    3207           0      -289.413666   1974.679443  -24625.00000     18.990824
    3208           0      -289.413666   1974.679443  -24875.00000     17.998987
    3209           0      -289.413666   1974.679443  -25125.00000     16.710661
    3210           0      -289.413666   1974.679443  -25375.00000     15.932999
    3211           0      -289.413666   1974.679443  -25625.00000     14.865533
    3212           0      -289.413727   1974.679443  -25875.00000     12.611902
    3213           0      -403.420471   1954.577026  -13625.00000    126.482727
    3214           0      -403.420471   1954.577026  -13875.00000    133.087891
    3215           0      -403.420471   1954.577026  -14125.00000    126.778267
    3216           0      -403.420471   1954.577026  -14375.00000    123.648331
    3217           0      -403.420471   1954.577026  -14625.00000    119.645195
    3218           0      -403.420471   1954.577026  -14875.00000    116.284538
    3219           0      -403.420471   1954.577026  -15125.00000    112.487793
    3220           0      -403.420471   1954.577026  -15375.00000    109.061325
    3221           0      -403.420471   1954.577026  -15625.00000    105.435631
    3222           0      -403.420471   1954.577026  -15875.00000    102.014168
    3223           0      -403.420471   1954.577026  -16125.00000     98.514084
    3224           0      -403.420471   1954.577026  -16375.00000     95.142906
    3225           0      -403.420471   1954.577026  -16625.00000     91.754517
    3226           0      -403.420471   1954.577026  -16875.00000     88.459831
    3227           0      -403.420471   1954.577026  -17125.00000     85.182533
    3228           0      -403.420471   1954.577026  -17375.00000     81.983391
    3229           0      -403.420471   1954.577026  -17625.00000     78.822647
    3230           0      -403.420471   1954.577026  -17875.00000     75.734558
    3231           0      -403.420471   1954.577026  -18125.00000     72.698662
    3232           0      -403.420471   1954.577026  -18375.00000     69.734947
    3233           0      -403.420471   1954.577026  -18625.00000     66.833015
    3234           0      -403.420471   1954.577026  -18875.00000     64.004860
    3235           0      -403.420471   1954.577026  -19125.00000     61.245205
    3236           0      -403.420471   1954.577026  -19375.00000     58.561302
    3237           0      -403.420471   1954.577026  -19625.00000     55.949932
    3238           0      -403.420471   1954.577026  -19875.00000     53.415730
    3239           0      -403.420471   1954.577026  -20125.00000     50.955677
    3240           0      -403.420471   1954.577026  -20375.00000     48.572853
    3241           0      -403.420471   1954.577026  -20625.00000     46.263630
    3242           0      -403.420471   1954.577026  -20875.00000     44.030582
    3243           0      -403.420471   1954.577026  -21125.00000     41.868713
    3244           0      -403.420471   1954.577026  -21375.00000     39.781422
    3245           0      -403.420471   1954.577026  -21625.00000     37.761456
    3246           0      -403.420471   1954.577026  -21875.00000     35.814877
    3247           0      -403.420471   1954.577026  -22125.00000     33.930668
    3248           0      -403.420471   1954.577026  -22375.00000     32.120033
    3249           0      -403.420471   1954.577026  -22625.00000     30.365679
    3250           0      -403.420471   1954.577026  -22875.00000     28.687426
    3251           0      -403.420471   1954.577026  -23125.00000     27.057714
    3252           0      -403.420471   1954.577026  -23375.00000     25.509809
    3253           0      -403.420471   1954.577026  -23625.00000     24.000324
    3254           0      -403.420471   1954.577026  -23875.00000     22.581991
    3255           0      -403.420471   1954.577026  -24125.00000     21.189373
    3256           0      -403.420471   1954.577026  -24375.00000     19.899981
    3257           0      -403.420471   1954.577026  -24625.00000     18.624130
    3258           0      -403.420471   1954.577026  -24875.00000     17.456053
    3259           0      -403.420471   1954.577026  -25125.00000     16.337435
    3260           0      -403.420471   1954.577026  -25375.00000     15.125062
    3261           0      -403.420471   1954.577026  -25625.00000     14.880971
    3262           0      -403.420471   1954.577026  -25875.00000     12.159137
    3263           0      -515.668457   1924.500244  -13625.00000    114.081337
    3264           0      -515.668457   1924.500244  -13875.00000    131.713409
    3265           0      -515.668457   1924.500244  -14125.00000    119.145355
    3266           0      -515.668457   1924.500244  -14375.00000    117.234200
    3267           0      -515.668457   1924.500244  -14625.00000    114.258354
    3268           0      -515.668457   1924.500244  -14875.00000    110.563248
    3269           0      -515.668457   1924.500244  -15125.00000    107.532272
    3270           0      -515.668457   1924.500244  -15375.00000    104.142525
    3271           0      -515.668457   1924.500244  -15625.00000    101.037384
    3272           0      -515.668457   1924.500244  -15875.00000     97.781181
    3273           0      -515.668457   1924.500244  -16125.00000     94.696609
    3274           0      -515.668457   1924.500244  -16375.00000     91.544212
    3275           0      -515.668457   1924.500244  -16625.00000     88.507980
    3276           0      -515.668457   1924.500244  -16875.00000     85.453331
    3277           0      -515.668457   1924.500244  -17125.00000     82.485619
    3278           0      -515.668457   1924.500244  -17375.00000     79.529831
    3279           0      -515.668457   1924.500244  -17625.00000     76.647026
    3280           0      -515.668457   1924.500244  -17875.00000     73.795631
    3281           0      -515.668457   1924.500244  -18125.00000     71.011620
    3282           0      -515.668457   1924.500244  -18375.00000     68.271973
    3283           0      -515.668457   1924.500244  -18625.00000     65.598129
    3284           0      -515.668457   1924.500244  -18875.00000     62.976967
    3285           0      -515.668457   1924.500244  -19125.00000     60.421200
    3286           0      -515.668457   1924.500244  -19375.00000     57.922550
    3287           0      -515.668457   1924.500244  -19625.00000     55.488480
    3288           0      -515.668457   1924.500244  -19875.00000     53.112595
    3289           0      -515.668457   1924.500244  -20125.00000     50.799068
    3290           0      -515.668457   1924.500244  -20375.00000     48.541767
    3291           0      -515.668457   1924.500244  -20625.00000     46.343792
    3292           0      -515.668457   1924.500244  -20875.00000     44.197559
    3293           0      -515.668457   1924.500244  -21125.00000     42.107418
    3294           0      -515.668457   1924.500244  -21375.00000     40.062820
    3295           0      -515.668457   1924.500244  -21625.00000     38.072334
    3296           0      -515.668457   1924.500244  -21875.00000     36.119854
    3297           0      -515.668457   1924.500244  -22125.00000     34.222744
    3298           0      -515.668457   1924.500244  -22375.00000     32.354458
    3299           0      -515.668457   1924.500244  -22625.00000     30.548677
    3300           0      -515.668457   1924.500244  -22875.00000     28.759382
    3301           0      -515.668457   1924.500244  -23125.00000     27.049177
    3302           0      -515.668457   1924.500244  -23375.00000     25.336414
    3303           0      -515.668457   1924.500244  -23625.00000     23.734207
    3304           0      -515.668457   1924.500244  -23875.00000     22.097219
    3305           0      -515.668457   1924.500244  -24125.00000     20.625612
    3306           0      -515.668457   1924.500244  -24375.00000     19.064377
    3307           0      -515.668457   1924.500244  -24625.00000     17.756472
    3308           0      -515.668457   1924.500244  -24875.00000     16.275103
    3309           0      -515.668457   1924.500244  -25125.00000     15.200503
    3310           0      -515.668457   1924.500244  -25375.00000     13.646508
    3311           0      -515.668457   1924.500244  -25625.00000     13.540375
    3312           0      -515.668457   1924.500244  -25875.00000     11.066412
    3313           0      -627.916382   1894.423340  -13625.00000    111.917648
    3314           0      -627.916382   1894.423340  -13875.00000    123.336700
    3315           0      -627.916382   1894.423340  -14125.00000    115.978561
    3316           0      -627.916382   1894.423340  -14375.00000    113.511528
    3317           0      -627.916382   1894.423340  -14625.00000    110.475380
    3318           0      -627.916382   1894.423340  -14875.00000    107.524506
    3319           0      -627.916382   1894.423340  -15125.00000    104.482353
    3320           0      -627.916382   1894.423340  -15375.00000    101.590919
    3321           0      -627.916382   1894.423340  -15625.00000     98.607544
    3322           0      -627.916382   1894.423340  -15875.00000     95.735031
    3323           0      -627.916382   1894.423340  -16125.00000     92.816238
    3324           0      -627.916382   1894.423340  -16375.00000     89.977486
    3325           0      -627.916382   1894.423340  -16625.00000     87.122231
    3326           0      -627.916382   1894.423340  -16875.00000     84.330315
    3327           0      -627.916382   1894.423340  -17125.00000     81.542709
    3328           0      -627.916382   1894.423340  -17375.00000     78.809990
    3329           0      -627.916382   1894.423340  -17625.00000     76.096962
    3330           0      -627.916382   1894.423340  -17875.00000     73.435677
    3331           0      -627.916443   1894.423340  -18125.00000     70.805641
    3332           0      -627.916443   1894.423340  -18375.00000     68.227020
    3333           0      -627.916443   1894.423340  -18625.00000     65.687881
    3334           0      -627.916443   1894.423340  -18875.00000     63.200512
    3335           0      -627.916443   1894.423340  -19125.00000     60.757378
    3336           0      -627.916443   1894.423340  -19375.00000     58.365417
    3337           0      -627.916443   1894.423340  -19625.00000     56.019028
    3338           0      -627.916443   1894.423340  -19875.00000     53.721611
    3339           0      -627.916443   1894.423340  -20125.00000     51.467960
    3340           0      -627.916443   1894.423340  -20375.00000     49.259716
    3341           0      -627.916443   1894.423340  -20625.00000     47.091175
    3342           0      -627.916443   1894.423340  -20875.00000     44.963985
    3343           0      -627.916443   1894.423340  -21125.00000     42.871078
    3344           0      -627.916443   1894.423340  -21375.00000     40.816559
    3345           0      -627.916443   1894.423340  -21625.00000     38.790314
    3346           0      -627.916443   1894.423340  -21875.00000     36.802578
    3347           0      -627.916443   1894.423340  -22125.00000     34.836903
    3348           0      -627.916443   1894.423340  -22375.00000     32.915688
    3349           0      -627.916443   1894.423340  -22625.00000     31.009396
    3350           0      -627.916443   1894.423340  -22875.00000     29.163210
    3351           0      -627.916443   1894.423340  -23125.00000     27.320999
    3352           0      -627.916443   1894.423340  -23375.00000     25.570118
    3353           0      -627.916443   1894.423340  -23625.00000     23.801720
    3354           0      -627.916443   1894.423340  -23875.00000     22.181385
    3355           0      -627.916443   1894.423340  -24125.00000     20.498440
    3356           0      -627.916443   1894.423340  -24375.00000     19.063341
    3357           0      -627.916443   1894.423340  -24625.00000     17.474466
    3358           0      -627.916443   1894.423340  -24875.00000     16.304943
    3359           0      -627.916443   1894.423340  -25125.00000     14.802455
    3360           0      -627.916443   1894.423340  -25375.00000     14.031058
    3361           0      -627.916443   1894.423340  -25625.00000     12.603535
    3362           0      -627.916443   1894.423340  -25875.00000     11.189501
    3363           0      -736.700378   1854.829224  -13625.00000    109.699684
    3364           0      -736.700378   1854.829224  -13875.00000    114.376060
    3365           0      -736.700378   1854.829224  -14125.00000    110.175697
    3366           0      -736.700378   1854.829224  -14375.00000    107.910179
    3367           0      -736.700378   1854.829224  -14625.00000    104.999939
    3368           0      -736.700378   1854.829224  -14875.00000    102.638565
    3369           0      -736.700378   1854.829224  -15125.00000     99.885002
    3370           0      -736.700378   1854.829224  -15375.00000     97.424477
    3371           0      -736.700378   1854.829224  -15625.00000     94.791458
    3372           0      -736.700378   1854.829224  -15875.00000     92.301979
    3373           0      -736.700378   1854.829224  -16125.00000     89.739914
    3374           0      -736.700378   1854.829224  -16375.00000     87.257759
    3375           0      -736.700378   1854.829224  -16625.00000     84.750183
    3376           0      -736.700378   1854.829224  -16875.00000     82.293571
    3377           0      -736.700378   1854.829224  -17125.00000     79.836128
    3378           0      -736.700378   1854.829224  -17375.00000     77.416862
    3379           0      -736.700378   1854.829224  -17625.00000     75.010284
    3380           0      -736.700378   1854.829224  -17875.00000     72.636681
    3381           0      -736.700378   1854.829224  -18125.00000     70.283218
    3382           0      -736.700378   1854.829224  -18375.00000     67.960396
    3383           0      -736.700378   1854.829224  -18625.00000     65.661095
    3384           0      -736.700378   1854.829224  -18875.00000     63.390484
    3385           0      -736.700378   1854.829224  -19125.00000     61.143616
    3386           0      -736.700378   1854.829224  -19375.00000     58.922726
    3387           0      -736.700378   1854.829224  -19625.00000     56.723427
    3388           0      -736.700378   1854.829224  -19875.00000     54.546669
    3389           0      -736.700378   1854.829224  -20125.00000     52.388008
    3390           0      -736.700378   1854.829224  -20375.00000     50.248459
    3391           0      -736.700378   1854.829224  -20625.00000     48.123165
    3392           0      -736.700378   1854.829224  -20875.00000     46.014484
    3393           0      -736.700378   1854.829224  -21125.00000     43.916775
    3394           0      -736.700378   1854.829224  -21375.00000     41.835110
    3395           0      -736.700378   1854.829224  -21625.00000     39.762295
    3396           0      -736.700378   1854.829224  -21875.00000     37.707878
    3397           0      -736.700378   1854.829224  -22125.00000     35.661926
    3398           0      -736.700378   1854.829224  -22375.00000     33.640862
    3399           0      -736.700378   1854.829224  -22625.00000     31.630449
    3400           0      -736.700378   1854.829224  -22875.00000     29.656891
    3401           0      -736.700378   1854.829224  -23125.00000     27.700146
    3402           0      -736.700378   1854.829224  -23375.00000     25.798573
    3403           0      -736.700378   1854.829224  -23625.00000     23.926819
    3404           0      -736.700378   1854.829224  -23875.00000     22.133533
    3405           0      -736.700378   1854.829224  -24125.00000     20.397516
    3406           0      -736.700378   1854.829224  -24375.00000     18.760113
    3407           0      -736.700378   1854.829224  -24625.00000     17.244686
    3408           0      -736.700378   1854.829224  -24875.00000     15.808003
    3409           0      -736.700378   1854.829224  -25125.00000     14.682146
    3410           0      -736.700378   1854.829224  -25375.00000     13.442081
    3411           0      -736.700378   1854.829224  -25625.00000     12.954589
    3412           0      -736.700378   1854.829224  -25875.00000     12.608766
    3413           0      -842.020264   1805.717773  -13625.00000     96.071381
    3414           0      -842.020264   1805.717773  -13875.00000    110.493797
    3415           0      -842.020264   1805.717773  -14125.00000    100.886200
    3416           0      -842.020264   1805.717773  -14375.00000    100.023262
    3417           0      -842.020264   1805.717773  -14625.00000     98.085617
    3418           0      -842.020264   1805.717773  -14875.00000     95.723083
    3419           0      -842.020264   1805.717773  -15125.00000     93.777756
    3420           0      -842.020264   1805.717773  -15375.00000     91.611748
    3421           0      -842.020264   1805.717773  -15625.00000     89.610443
    3422           0      -842.020264   1805.717773  -15875.00000     87.515816
    3423           0      -842.020203   1805.717773  -16125.00000     85.517876
    3424           0      -842.020203   1805.717773  -16375.00000     83.471519
    3425           0      -842.020203   1805.717773  -16625.00000     81.486725
    3426           0      -842.020203   1805.717773  -16875.00000     79.479362
    3427           0      -842.020203   1805.717773  -17125.00000     77.512154
    3428           0      -842.020203   1805.717773  -17375.00000     75.536034
    3429           0      -842.020203   1805.717773  -17625.00000     73.586121
    3430           0      -842.020203   1805.717773  -17875.00000     71.632683
    3431           0      -842.020203   1805.717773  -18125.00000     69.694435
    3432           0      -842.020203   1805.717773  -18375.00000     67.752075
    3433           0      -842.020203   1805.717773  -18625.00000     65.814743
    3434           0      -842.020203   1805.717773  -18875.00000     63.868835
    3435           0      -842.020203   1805.717773  -19125.00000     61.918358
    3436           0      -842.020203   1805.717773  -19375.00000     59.953182
    3437           0      -842.020203   1805.717773  -19625.00000     57.975422
    3438           0      -842.020203   1805.717773  -19875.00000     55.977306
    3439           0      -842.020203   1805.717773  -20125.00000     53.961555
    3440           0      -842.020203   1805.717773  -20375.00000     51.921917
    3441           0      -842.020203   1805.717773  -20625.00000     49.863647
    3442           0      -842.020203   1805.717773  -20875.00000     47.780697
    3443           0      -842.020203   1805.717773  -21125.00000     45.682816
    3444           0      -842.020203   1805.717773  -21375.00000     43.561859
    3445           0      -842.020203   1805.717773  -21625.00000     41.434616
    3446           0      -842.020203   1805.717773  -21875.00000     39.287140
    3447           0      -842.020203   1805.717773  -22125.00000     37.147614
    3448           0      -842.020203   1805.717773  -22375.00000     34.990440
    3449           0      -842.020203   1805.717773  -22625.00000     32.863052
    3450           0      -842.020203   1805.717773  -22875.00000     30.718918
    3451           0      -842.020203   1805.717773  -23125.00000     28.638432
    3452           0      -842.020203   1805.717773  -23375.00000     26.539360
    3453           0      -842.020142   1805.717773  -23625.00000     24.557264
    3454           0      -842.020142   1805.717773  -23875.00000     22.552109
    3455           0      -842.020142   1805.717773  -24125.00000     20.746597
    3456           0      -842.020142   1805.717773  -24375.00000     18.916159
    3457           0      -842.020142   1805.717773  -24625.00000     17.402525
    3458           0      -842.020142   1805.717773  -24875.00000     15.894155
    3459           0      -842.020142   1805.717773  -25125.00000     14.804726
    3460           0      -842.020142   1805.717773  -25375.00000     13.899348
    3461           0      -842.020142   1805.717773  -25625.00000     13.393303
    3462           0      -842.020264   1805.717773  -25875.00000     12.880193
    3463           0      -947.340088   1756.606201  -13625.00000     90.298798
    3464           0      -947.340088   1756.606201  -13875.00000    101.134499
    3465           0      -947.340088   1756.606201  -14125.00000     95.654762
    3466           0      -947.340088   1756.606201  -14375.00000     94.313477
    3467           0      -947.340088   1756.606201  -14625.00000     92.750595
    3468           0      -947.340088   1756.606201  -14875.00000     91.015610
    3469           0      -947.340088   1756.606201  -15125.00000     89.348328
    3470           0      -947.340088   1756.606201  -15375.00000     87.700356
    3471           0      -947.340088   1756.606201  -15625.00000     86.026985
    3472           0      -947.340088   1756.606201  -15875.00000     84.389519
    3473           0      -947.340088   1756.606201  -16125.00000     82.727043
    3474           0      -947.340088   1756.606201  -16375.00000     81.092705
    3475           0      -947.340088   1756.606201  -16625.00000     79.437004
    3476           0      -947.340088   1756.606201  -16875.00000     77.800209
    3477           0      -947.340088   1756.606201  -17125.00000     76.144928
    3478           0      -947.340088   1756.606201  -17375.00000     74.498688
    3479           0      -947.340088   1756.606201  -17625.00000     72.834084
    3480           0      -947.340088   1756.606445  -17875.00000     71.167824
    3481           0      -947.340088   1756.606445  -18125.00000     69.479347
    3482           0      -947.340088   1756.606445  -18375.00000     67.777214
    3483           0      -947.340088   1756.606445  -18625.00000     66.045479
    3484           0      -947.340088   1756.606445  -18875.00000     64.287621
    3485           0      -947.340088   1756.606445  -19125.00000     62.491302
    3486           0      -947.340088   1756.606445  -19375.00000     60.657917
    3487           0      -947.340088   1756.606445  -19625.00000     58.778549
    3488           0      -947.340088   1756.606445  -19875.00000     56.855156
    3489           0      -947.340088   1756.606445  -20125.00000     54.881981
    3490           0      -947.340088   1756.606445  -20375.00000     52.863647
    3491           0      -947.340088   1756.606445  -20625.00000     50.796677
    3492           0      -947.340088   1756.606445  -20875.00000     48.689960
    3493           0      -947.340088   1756.606445  -21125.00000     46.540245
    3494           0      -947.340088   1756.606445  -21375.00000     44.362530
    3495           0      -947.340088   1756.606445  -21625.00000     42.150112
    3496           0      -947.340088   1756.606445  -21875.00000     39.927361
    3497           0      -947.340088   1756.606445  -22125.00000     37.678215
    3498           0      -947.340088   1756.606445  -22375.00000     35.443314
    3499           0      -947.340088   1756.606445  -22625.00000     33.187641
    3500           0      -947.340088   1756.606445  -22875.00000     30.982443
    3501           0      -947.340088   1756.606445  -23125.00000     28.757088
    3502           0      -947.340027   1756.606445  -23375.00000     26.641075
    3503           0      -947.340027   1756.606445  -23625.00000     24.497608
    3504           0      -947.340027   1756.606445  -23875.00000     22.565155
    3505           0      -947.340027   1756.606445  -24125.00000     20.584538
    3506           0      -947.340027   1756.606445  -24375.00000     18.990063
    3507           0      -947.340027   1756.606445  -24625.00000     17.303850
    3508           0      -947.340027   1756.606445  -24875.00000     16.281738
    3509           0      -947.340027   1756.606445  -25125.00000     15.084097
    3510           0      -947.340027   1756.606445  -25375.00000     14.878125
    3511           0      -947.340027   1756.606445  -25625.00000     14.426519
    3512           0      -947.340088   1756.606445  -25875.00000     13.917681
    3513           0     -1047.595947   1698.723511  -13625.00000     88.120537
    3514           0     -1047.595947   1698.723511  -13875.00000     91.067886
    3515           0     -1047.595947   1698.723511  -14125.00000     89.336731
    3516           0     -1047.595947   1698.723511  -14375.00000     88.088295
    3517           0     -1047.595947   1698.723511  -14625.00000     86.686386
    3518           0     -1047.595947   1698.723511  -14875.00000     85.566498
    3519           0     -1047.595947   1698.723511  -15125.00000     84.224556
    3520           0     -1047.595947   1698.723511  -15375.00000     83.034111
    3521           0     -1047.595947   1698.723511  -15625.00000     81.756577
    3522           0     -1047.595947   1698.723511  -15875.00000     80.534973
    3523           0     -1047.595947   1698.723511  -16125.00000     79.277039
    3524           0     -1047.595947   1698.723511  -16375.00000     78.036026
    3525           0     -1047.595947   1698.723511  -16625.00000     76.774300
    3526           0     -1047.595947   1698.723511  -16875.00000     75.508385
    3527           0     -1047.595947   1698.723511  -17125.00000     74.222900
    3528           0     -1047.595947   1698.723511  -17375.00000     72.918358
    3529           0     -1047.595947   1698.723511  -17625.00000     71.587654
    3530           0     -1047.595947   1698.723511  -17875.00000     70.224632
    3531           0     -1047.595947   1698.723511  -18125.00000     68.824425
    3532           0     -1047.595947   1698.723511  -18375.00000     67.378738
    3533           0     -1047.595947   1698.723511  -18625.00000     65.883110
    3534           0     -1047.595947   1698.723511  -18875.00000     64.329773
    3535           0     -1047.595947   1698.723511  -19125.00000     62.714745
    3536           0     -1047.595947   1698.723511  -19375.00000     61.032749
    3537           0     -1047.595947   1698.723511  -19625.00000     59.281086
    3538           0     -1047.595947   1698.723511  -19875.00000     57.458309
    3539           0     -1047.595947   1698.723511  -20125.00000     55.563625
    3540           0     -1047.595947   1698.723511  -20375.00000     53.600304
    3541           0     -1047.595947   1698.723511  -20625.00000     51.569420
    3542           0     -1047.595947   1698.723511  -20875.00000     49.479355
    3543           0     -1047.595947   1698.723511  -21125.00000     47.332222
    3544           0     -1047.595947   1698.723511  -21375.00000     45.141602
    3545           0     -1047.595947   1698.723511  -21625.00000     42.909138
    3546           0     -1047.595947   1698.723511  -21875.00000     40.653793
    3547           0     -1047.595947   1698.723511  -22125.00000     38.375069
    3548           0     -1047.595947   1698.723511  -22375.00000     36.097984
    3549           0     -1047.595947   1698.723511  -22625.00000     33.819260
    3550           0     -1047.595947   1698.723511  -22875.00000     31.571152
    3551           0     -1047.595947   1698.723511  -23125.00000     29.350721
    3552           0     -1047.595947   1698.723511  -23375.00000     27.196827
    3553           0     -1047.595947   1698.723511  -23625.00000     25.119873
    3554           0     -1047.595947   1698.723511  -23875.00000     23.153950
    3555           0     -1047.595947   1698.723511  -24125.00000     21.361010
    3556           0     -1047.595947   1698.723511  -24375.00000     19.720661
    3557           0     -1047.595947   1698.723511  -24625.00000     18.446888
    3558           0     -1047.595947   1698.723511  -24875.00000     17.298546
    3559           0     -1047.595947   1698.723511  -25125.00000     16.879576
    3560           0     -1047.595947   1698.723511  -25375.00000     16.440401
    3561           0     -1047.595947   1698.723511  -25625.00000     16.568478
    3562           0     -1047.595947   1698.723511  -25875.00000     18.781525
    3563           0     -1142.787598   1632.069580  -13625.00000     76.355751
    3564           0     -1142.787598   1632.069580  -13875.00000     87.087547
    3565           0     -1142.787598   1632.069580  -14125.00000     80.746346
    3566           0     -1142.787598   1632.069580  -14375.00000     80.888382
    3567           0     -1142.787598   1632.069580  -14625.00000     80.044800
    3568           0     -1142.787598   1632.069580  -14875.00000     79.070732
    3569           0     -1142.787598   1632.069580  -15125.00000     78.266068
    3570           0     -1142.787598   1632.069580  -15375.00000     77.399368
    3571           0     -1142.787598   1632.069580  -15625.00000     76.572418
    3572           0     -1142.787598   1632.069580  -15875.00000     75.724655
    3573           0     -1142.787598   1632.069580  -16125.00000     74.893784
    3574           0     -1142.787598   1632.069580  -16375.00000     74.041916
    3575           0     -1142.787598   1632.069580  -16625.00000     73.189545
    3576           0     -1142.787598   1632.069580  -16875.00000     72.310654
    3577           0     -1142.787598   1632.069580  -17125.00000     71.412552
    3578           0     -1142.787598   1632.069580  -17375.00000     70.476494
    3579           0     -1142.787598   1632.069580  -17625.00000     69.501686
    3580           0     -1142.787598   1632.069580  -17875.00000     68.473381
    3581           0     -1142.787598   1632.069580  -18125.00000     67.386955
    3582           0     -1142.787598   1632.069580  -18375.00000     66.230446
    3583           0     -1142.787598   1632.069580  -18625.00000     64.998497
    3584           0     -1142.787598   1632.069580  -18875.00000     63.681770
    3585           0     -1142.787598   1632.069580  -19125.00000     62.276638
    3586           0     -1142.787598   1632.069580  -19375.00000     60.776470
    3587           0     -1142.787598   1632.069580  -19625.00000     59.181187
    3588           0     -1142.787598   1632.069580  -19875.00000     57.486843
    3589           0     -1142.787598   1632.069580  -20125.00000     55.698357
    3590           0     -1142.787598   1632.069580  -20375.00000     53.814007
    3591           0     -1142.787598   1632.069580  -20625.00000     51.845100
    3592           0     -1142.787598   1632.069580  -20875.00000     49.790779
    3593           0     -1142.787598   1632.069580  -21125.00000     47.670364
    3594           0     -1142.787598   1632.069580  -21375.00000     45.481297
    3595           0     -1142.787598   1632.069580  -21625.00000     43.253387
    3596           0     -1142.787598   1632.069580  -21875.00000     40.978062
    3597           0     -1142.787598   1632.069580  -22125.00000     38.699848
    3598           0     -1142.787598   1632.069580  -22375.00000     36.397686
    3599           0     -1142.787598   1632.069580  -22625.00000     34.138618
    3600           0     -1142.787598   1632.069580  -22875.00000     31.880102
    3601           0     -1142.787598   1632.069580  -23125.00000     29.725229
    3602           0     -1142.787598   1632.069580  -23375.00000     27.598885
    3603           0     -1142.787598   1632.069580  -23625.00000     25.660233
    3604           0     -1142.787598   1632.069580  -23875.00000     23.791269
    3605           0     -1142.787720   1632.069580  -24125.00000     22.224968
    3606           0     -1142.787720   1632.069580  -24375.00000     20.801794
    3607           0     -1142.787720   1632.069580  -24625.00000     19.804493
    3608           0     -1142.787720   1632.069580  -24875.00000     19.084608
    3609           0     -1142.787720   1632.069580  -25125.00000     18.787987
    3610           0     -1142.787720   1632.069580  -25375.00000     19.036398
    3611           0     -1142.787720   1632.069580  -25625.00000     19.533772
    3612           0     -1142.787720   1632.069580  -25875.00000     19.767664
    3613           0     -1237.979370   1565.415527  -13625.00000     70.014503
    3614           0     -1237.979370   1565.415527  -13875.00000     79.231316
    3615           0     -1237.979370   1565.415527  -14125.00000     75.684837
    3616           0     -1237.979370   1565.415527  -14375.00000     75.317299
    3617           0     -1237.979370   1565.415527  -14625.00000     74.970558
    3618           0     -1237.979370   1565.415527  -14875.00000     74.347916
    3619           0     -1237.979370   1565.415527  -15125.00000     73.890236
    3620           0     -1237.979370   1565.415527  -15375.00000     73.386909
    3621           0     -1237.979370   1565.415527  -15625.00000     72.918373
    3622           0     -1237.979370   1565.415527  -15875.00000     72.443062
    3623           0     -1237.979370   1565.415527  -16125.00000     71.974442
    3624           0     -1237.979370   1565.415527  -16375.00000     71.500763
    3625           0     -1237.979370   1565.415527  -16625.00000     71.015602
    3626           0     -1237.979370   1565.415527  -16875.00000     70.516312
    3627           0     -1237.979370   1565.415527  -17125.00000     69.988167
    3628           0     -1237.979370   1565.415527  -17375.00000     69.428513
    3629           0     -1237.979370   1565.415527  -17625.00000     68.819618
    3630           0     -1237.979370   1565.415527  -17875.00000     68.156326
    3631           0     -1237.979370   1565.415527  -18125.00000     67.420570
    3632           0     -1237.979370   1565.415527  -18375.00000     66.605530
    3633           0     -1237.979370   1565.415527  -18625.00000     65.694725
    3634           0     -1237.979370   1565.415527  -18875.00000     64.681824
    3635           0     -1237.979370   1565.415527  -19125.00000     63.553383
    3636           0     -1237.979370   1565.415527  -19375.00000     62.305912
    3637           0     -1237.979370   1565.415527  -19625.00000     60.930058
    3638           0     -1237.979370   1565.415527  -19875.00000     59.427391
    3639           0     -1237.979370   1565.415527  -20125.00000     57.792999
    3640           0     -1237.979370   1565.415527  -20375.00000     56.035542
    3641           0     -1237.979370   1565.415527  -20625.00000     54.153927
    3642           0     -1237.979370   1565.415527  -20875.00000     52.165840
    3643           0     -1237.979370   1565.415527  -21125.00000     50.071877
    3644           0     -1237.979370   1565.415527  -21375.00000     47.901054
    3645           0     -1237.979370   1565.415527  -21625.00000     45.651257
    3646           0     -1237.979370   1565.415527  -21875.00000     43.366398
    3647           0     -1237.979370   1565.415527  -22125.00000     41.034031
    3648           0     -1237.979370   1565.415527  -22375.00000     38.719936
    3649           0     -1237.979370   1565.415527  -22625.00000     36.389046
    3650           0     -1237.979370   1565.415527  -22875.00000     34.143421
    3651           0     -1237.979370   1565.415527  -23125.00000     31.906130
    3652           0     -1237.979370   1565.415527  -23375.00000     29.844057
    3653           0     -1237.979370   1565.415527  -23625.00000     27.807379
    3654           0     -1237.979370   1565.415527  -23875.00000     26.078356
    3655           0     -1237.979492   1565.415527  -24125.00000     24.381481
    3656           0     -1237.979492   1565.415527  -24375.00000     23.188169
    3657           0     -1237.979492   1565.415527  -24625.00000     22.008438
    3658           0     -1237.979492   1565.415527  -24875.00000     21.583605
    3659           0     -1237.979492   1565.415527  -25125.00000     21.091742
    3660           0     -1237.979492   1565.415527  -25375.00000     21.456125
    3661           0     -1237.979492   1565.415527  -25625.00000     22.241823
    3662           0     -1237.979370   1565.415527  -25875.00000     21.160830
    3663           0     -1326.660889   1491.003052  -13625.00000     70.318245
    3664           0     -1326.660889   1491.003052  -13875.00000     71.709396
    3665           0     -1326.660889   1491.003052  -14125.00000     71.766525
    3666           0     -1326.660889   1491.003052  -14375.00000     70.982979
    3667           0     -1326.660889   1491.003052  -14625.00000     70.689941
    3668           0     -1326.660889   1491.003052  -14875.00000     70.335953
    3669           0     -1326.660889   1491.003052  -15125.00000     70.009468
    3670           0     -1326.660889   1491.003052  -15375.00000     69.697815
    3671           0     -1326.660889   1491.003052  -15625.00000     69.425430
    3672           0     -1326.660889   1491.003052  -15875.00000     69.149673
    3673           0     -1326.660889   1491.003052  -16125.00000     68.905769
    3674           0     -1326.660889   1491.003052  -16375.00000     68.651985
    3675           0     -1326.660889   1491.003052  -16625.00000     68.413902
    3676           0     -1326.660889   1491.003052  -16875.00000     68.155724
    3677           0     -1326.660889   1491.003052  -17125.00000     67.893234
    3678           0     -1326.660889   1491.003052  -17375.00000     67.594566
    3679           0     -1326.660889   1491.003052  -17625.00000     67.266548
    3680           0     -1326.660889   1491.003052  -17875.00000     66.880249
    3681           0     -1326.660889   1491.003052  -18125.00000     66.435265
    3682           0     -1326.660889   1491.003052  -18375.00000     65.905754
    3683           0     -1326.660889   1491.003052  -18625.00000     65.286812
    3684           0     -1326.660889   1491.003052  -18875.00000     64.556847
    3685           0     -1326.660889   1491.003052  -19125.00000     63.709644
    3686           0     -1326.660889   1491.003052  -19375.00000     62.729378
    3687           0     -1326.660889   1491.003052  -19625.00000     61.611591
    3688           0     -1326.660889   1491.003052  -19875.00000     60.347767
    3689           0     -1326.660889   1491.003052  -20125.00000     58.937622
    3690           0     -1326.660889   1491.003052  -20375.00000     57.380989
    3691           0     -1326.660889   1491.003052  -20625.00000     55.683300
    3692           0     -1326.660889   1491.003052  -20875.00000     53.853153
    3693           0     -1326.660889   1491.003052  -21125.00000     51.902164
    3694           0     -1326.660889   1491.003052  -21375.00000     49.847168
    3695           0     -1326.660889   1491.003052  -21625.00000     47.705578
    3696           0     -1326.660889   1491.003052  -21875.00000     45.500809
    3697           0     -1326.660889   1491.003052  -22125.00000     43.255291
    3698           0     -1326.660889   1491.003052  -22375.00000     40.995979
    3699           0     -1326.660889   1491.003052  -22625.00000     38.750656
    3700           0     -1326.660889   1491.003052  -22875.00000     36.544632
    3701           0     -1326.660889   1491.003052  -23125.00000     34.416111
    3702           0     -1326.660889   1491.003052  -23375.00000     32.378582
    3703           0     -1326.660889   1491.003052  -23625.00000     30.498144
    3704           0     -1326.660889   1491.003052  -23875.00000     28.751139
    3705           0     -1326.660889   1491.003052  -24125.00000     27.277205
    3706           0     -1326.660889   1491.003052  -24375.00000     25.946617
    3707           0     -1326.660889   1491.003052  -24625.00000     25.074791
    3708           0     -1326.660889   1491.003052  -24875.00000     24.258970
    3709           0     -1326.660889   1491.003052  -25125.00000     24.195995
    3710           0     -1326.661011   1491.003052  -25375.00000     23.976297
    3711           0     -1326.661011   1491.002930  -25625.00000     24.332832
    3712           0     -1326.661011   1491.002930  -25875.00000     26.437387
    3713           0     -1408.832275   1408.831787  -13625.00000     63.826164
    3714           0     -1408.832275   1408.831787  -13875.00000     71.763466
    3715           0     -1408.832275   1408.831787  -14125.00000     67.324333
    3716           0     -1408.832275   1408.831787  -14375.00000     67.556160
    3717           0     -1408.832275   1408.831787  -14625.00000     67.122360
    3718           0     -1408.832275   1408.831787  -14875.00000     66.641884
    3719           0     -1408.832275   1408.831787  -15125.00000     66.259415
    3720           0     -1408.832275   1408.831787  -15375.00000     65.918297
    3721           0     -1408.832275   1408.831787  -15625.00000     65.589500
    3722           0     -1408.832275   1408.831787  -15875.00000     65.320694
    3723           0     -1408.832275   1408.831787  -16125.00000     65.067986
    3724           0     -1408.832275   1408.831787  -16375.00000     64.862381
    3725           0     -1408.832275   1408.831787  -16625.00000     64.670296
    3726           0     -1408.832275   1408.831787  -16875.00000     64.509468
    3727           0     -1408.832275   1408.831787  -17125.00000     64.349876
    3728           0     -1408.832275   1408.831787  -17375.00000     64.198845
    3729           0     -1408.832275   1408.831787  -17625.00000     64.027710
    3730           0     -1408.832275   1408.831787  -17875.00000     63.834667
    3731           0     -1408.832275   1408.831787  -18125.00000     63.592201
    3732           0     -1408.832275   1408.831787  -18375.00000     63.291721
    3733           0     -1408.832275   1408.831787  -18625.00000     62.908058
    3734           0     -1408.832275   1408.831787  -18875.00000     62.429199
    3735           0     -1408.832031   1408.831787  -19125.00000     61.834480
    3736           0     -1408.832031   1408.831787  -19375.00000     61.111980
    3737           0     -1408.832031   1408.831787  -19625.00000     60.247910
    3738           0     -1408.832031   1408.831787  -19875.00000     59.233295
    3739           0     -1408.832031   1408.831787  -20125.00000     58.063400
    3740           0     -1408.832031   1408.831787  -20375.00000     56.734043
    3741           0     -1408.832031   1408.831787  -20625.00000     55.251377
    3742           0     -1408.832031   1408.831787  -20875.00000     53.616600
    3743           0     -1408.832031   1408.831787  -21125.00000     51.848427
    3744           0     -1408.832031   1408.831787  -21375.00000     49.952606
    3745           0     -1408.832031   1408.831787  -21625.00000     47.962048
    3746           0     -1408.832031   1408.831787  -21875.00000     45.884365
    3747           0     -1408.832031   1408.831787  -22125.00000     43.768414
    3748           0     -1408.832031   1408.831787  -22375.00000     41.618473
    3749           0     -1408.832031   1408.831787  -22625.00000     39.501526
    3750           0     -1408.832031   1408.831787  -22875.00000     37.410114
    3751           0     -1408.832031   1408.831787  -23125.00000     35.432487
    3752           0     -1408.832031   1408.831787  -23375.00000     33.537949
    3753           0     -1408.832031   1408.831787  -23625.00000     31.840694
    3754           0     -1408.832031   1408.831787  -23875.00000     30.274488
    3755           0     -1408.832031   1408.831787  -24125.00000     28.984062
    3756           0     -1408.832031   1408.831787  -24375.00000     27.861586
    3757           0     -1408.832031   1408.831787  -24625.00000     27.075283
    3758           0     -1408.832031   1408.831787  -24875.00000     26.479324
    3759           0     -1408.832031   1408.831787  -25125.00000     26.264702
    3760           0     -1408.832031   1408.831787  -25375.00000     26.161924
    3761           0     -1408.832153   1408.831787  -25625.00000     26.624456
    3762           0     -1408.832153   1408.831787  -25875.00000     26.628830
    3763           0     -1491.003296   1326.660645  -13625.00000     61.580132
    3764           0     -1491.003296   1326.660645  -13875.00000     68.864265
    3765           0     -1491.003296   1326.660645  -14125.00000     65.812782
    3766           0     -1491.003296   1326.660645  -14375.00000     65.504395
    3767           0     -1491.003296   1326.660645  -14625.00000     65.107544
    3768           0     -1491.003296   1326.660645  -14875.00000     64.628098
    3769           0     -1491.003296   1326.660645  -15125.00000     64.297127
    3770           0     -1491.003296   1326.660645  -15375.00000     64.007347
    3771           0     -1491.003296   1326.660645  -15625.00000     63.818836
    3772           0     -1491.003296   1326.660645  -15875.00000     63.697155
    3773           0     -1491.003296   1326.660645  -16125.00000     63.682259
    3774           0     -1491.003296   1326.660645  -16375.00000     63.743584
    3775           0     -1491.003296   1326.660645  -16625.00000     63.904762
    3776           0     -1491.003296   1326.660645  -16875.00000     64.135788
    3777           0     -1491.003296   1326.660645  -17125.00000     64.440941
    3778           0     -1491.003296   1326.660645  -17375.00000     64.787476
    3779           0     -1491.003296   1326.660645  -17625.00000     65.163170
    3780           0     -1491.003296   1326.660645  -17875.00000     65.532600
    3781           0     -1491.003296   1326.660645  -18125.00000     65.872818
    3782           0     -1491.003296   1326.660645  -18375.00000     66.148903
    3783           0     -1491.003296   1326.660645  -18625.00000     66.333893
    3784           0     -1491.003296   1326.660645  -18875.00000     66.397423
    3785           0     -1491.003296   1326.660645  -19125.00000     66.314156
    3786           0     -1491.003296   1326.660645  -19375.00000     66.061691
    3787           0     -1491.003296   1326.660645  -19625.00000     65.620064
    3788           0     -1491.003296   1326.660645  -19875.00000     64.977257
    3789           0     -1491.003296   1326.660645  -20125.00000     64.120636
    3790           0     -1491.003296   1326.660645  -20375.00000     63.050419
    3791           0     -1491.003296   1326.660645  -20625.00000     61.761936
    3792           0     -1491.003296   1326.660645  -20875.00000     60.269604
    3793           0     -1491.003296   1326.660645  -21125.00000     58.576054
    3794           0     -1491.003296   1326.660645  -21375.00000     56.712193
    3795           0     -1491.003296   1326.660645  -21625.00000     54.685574
    3796           0     -1491.003296   1326.660645  -21875.00000     52.546326
    3797           0     -1491.003296   1326.660645  -22125.00000     50.301216
    3798           0     -1491.003296   1326.660645  -22375.00000     48.022846
    3799           0     -1491.003296   1326.660645  -22625.00000     45.705814
    3800           0     -1491.003296   1326.660645  -22875.00000     43.450100
    3801           0     -1491.003296   1326.660645  -23125.00000     41.218300
    3802           0     -1491.003296   1326.660645  -23375.00000     39.148609
    3803           0     -1491.003296   1326.660645  -23625.00000     37.140205
    3804           0     -1491.003296   1326.660645  -23875.00000     35.396736
    3805           0     -1491.003296   1326.660645  -24125.00000     33.705376
    3806           0     -1491.003296   1326.660645  -24375.00000     32.396278
    3807           0     -1491.003296   1326.660645  -24625.00000     31.061022
    3808           0     -1491.003296   1326.660645  -24875.00000     30.282240
    3809           0     -1491.003296   1326.660645  -25125.00000     29.276012
    3810           0     -1491.003296   1326.660645  -25375.00000     29.007935
    3811           0     -1491.003296   1326.660645  -25625.00000     28.877623
    3812           0     -1491.003296   1326.660645  -25875.00000     26.950066
    3813           0     -1565.416016   1237.979126  -13625.00000     67.590691
    3814           0     -1565.416016   1237.979126  -13875.00000     67.288788
    3815           0     -1565.416016   1237.979126  -14125.00000     67.254807
    3816           0     -1565.416016   1237.979126  -14375.00000     65.653343
    3817           0     -1565.416016   1237.979126  -14625.00000     64.996834
    3818           0     -1565.416016   1237.979126  -14875.00000     64.144272
    3819           0     -1565.416016   1237.979126  -15125.00000     63.492310
    3820           0     -1565.416016   1237.979126  -15375.00000     62.889473
    3821           0     -1565.416016   1237.979126  -15625.00000     62.449200
    3822           0     -1565.416016   1237.979126  -15875.00000     62.109329
    3823           0     -1565.416016   1237.979126  -16125.00000     61.929932
    3824           0     -1565.416016   1237.979126  -16375.00000     61.882519
    3825           0     -1565.416016   1237.979126  -16625.00000     61.990089
    3826           0     -1565.416016   1237.979126  -16875.00000     62.227203
    3827           0     -1565.416016   1237.979126  -17125.00000     62.591366
    3828           0     -1565.416016   1237.979126  -17375.00000     63.047775
    3829           0     -1565.416016   1237.979126  -17625.00000     63.576378
    3830           0     -1565.416016   1237.979126  -17875.00000     64.134705
    3831           0     -1565.416016   1237.979126  -18125.00000     64.693832
    3832           0     -1565.416016   1237.979126  -18375.00000     65.210472
    3833           0     -1565.416016   1237.979126  -18625.00000     65.654846
    3834           0     -1565.416016   1237.979126  -18875.00000     65.988846
    3835           0     -1565.416016   1237.979126  -19125.00000     66.187447
    3836           0     -1565.416016   1237.979126  -19375.00000     66.221069
    3837           0     -1565.416016   1237.979126  -19625.00000     66.072365
    3838           0     -1565.416016   1237.979126  -19875.00000     65.721535
    3839           0     -1565.416016   1237.979126  -20125.00000     65.160439
    3840           0     -1565.416016   1237.979126  -20375.00000     64.379150
    3841           0     -1565.416016   1237.979126  -20625.00000     63.379948
    3842           0     -1565.416016   1237.979126  -20875.00000     62.162495
    3843           0     -1565.416016   1237.979126  -21125.00000     60.740932
    3844           0     -1565.416016   1237.979126  -21375.00000     59.123886
    3845           0     -1565.416016   1237.979126  -21625.00000     57.338997
    3846           0     -1565.416016   1237.979126  -21875.00000     55.402054
    3847           0     -1565.416016   1237.979126  -22125.00000     53.355835
    3848           0     -1565.416016   1237.979126  -22375.00000     51.218731
    3849           0     -1565.416016   1237.979126  -22625.00000     49.049549
    3850           0     -1565.416016   1237.979126  -22875.00000     46.860275
    3851           0     -1565.416016   1237.979126  -23125.00000     44.726475
    3852           0     -1565.416016   1237.979126  -23375.00000     42.638466
    3853           0     -1565.416016   1237.979126  -23625.00000     40.692093
    3854           0     -1565.416016   1237.979126  -23875.00000     38.832584
    3855           0     -1565.416016   1237.979126  -24125.00000     37.191074
    3856           0     -1565.416016   1237.979126  -24375.00000     35.631954
    3857           0     -1565.416016   1237.979126  -24625.00000     34.355206
    3858           0     -1565.416016   1237.979126  -24875.00000     33.122982
    3859           0     -1565.416016   1237.979126  -25125.00000     32.212494
    3860           0     -1565.416016   1237.979126  -25375.00000     31.205599
    3861           0     -1565.416016   1237.979126  -25625.00000     31.026531
    3862           0     -1565.416016   1237.979126  -25875.00000     30.119650
    3863           0     -1632.069946   1142.787354  -13625.00000     67.585159
    3864           0     -1632.069946   1142.787354  -13875.00000     75.146164
    3865           0     -1632.069946   1142.787354  -14125.00000     69.439522
    3866           0     -1632.069946   1142.787354  -14375.00000     68.133408
    3867           0     -1632.069946   1142.787354  -14625.00000     66.675606
    3868           0     -1632.069946   1142.787354  -14875.00000     64.906044
    3869           0     -1632.069946   1142.787354  -15125.00000     63.499413
    3870           0     -1632.069946   1142.787354  -15375.00000     62.112705
    3871           0     -1632.069946   1142.787354  -15625.00000     60.919617
    3872           0     -1632.069946   1142.787354  -15875.00000     59.870022
    3873           0     -1632.069946   1142.787354  -16125.00000     59.014984
    3874           0     -1632.069946   1142.787354  -16375.00000     58.352322
    3875           0     -1632.069946   1142.787354  -16625.00000     57.888218
    3876           0     -1632.069946   1142.787354  -16875.00000     57.624626
    3877           0     -1632.069946   1142.787354  -17125.00000     57.536617
    3878           0     -1632.069946   1142.787354  -17375.00000     57.614334
    3879           0     -1632.069946   1142.787354  -17625.00000     57.815178
    3880           0     -1632.069946   1142.787354  -17875.00000     58.117435
    3881           0     -1632.069946   1142.787354  -18125.00000     58.473682
    3882           0     -1632.069946   1142.787354  -18375.00000     58.857067
    3883           0     -1632.069946   1142.787354  -18625.00000     59.224300
    3884           0     -1632.069946   1142.787354  -18875.00000     59.549522
    3885           0     -1632.069946   1142.787354  -19125.00000     59.797817
    3886           0     -1632.069946   1142.787354  -19375.00000     59.947613
    3887           0     -1632.069946   1142.787354  -19625.00000     59.973255
    3888           0     -1632.069946   1142.787354  -19875.00000     59.858814
    3889           0     -1632.069946   1142.787354  -20125.00000     59.587379
    3890           0     -1632.069946   1142.787354  -20375.00000     59.149307
    3891           0     -1632.069946   1142.787354  -20625.00000     58.535942
    3892           0     -1632.069946   1142.787354  -20875.00000     57.744686
    3893           0     -1632.069946   1142.787354  -21125.00000     56.775246
    3894           0     -1632.069946   1142.787354  -21375.00000     55.633507
    3895           0     -1632.069946   1142.787354  -21625.00000     54.328117
    3896           0     -1632.069946   1142.787354  -21875.00000     52.875130
    3897           0     -1632.069946   1142.787354  -22125.00000     51.293282
    3898           0     -1632.069946   1142.787354  -22375.00000     49.609764
    3899           0     -1632.069946   1142.787354  -22625.00000     47.853882
    3900           0     -1632.069946   1142.787354  -22875.00000     46.062000
    3901           0     -1632.069946   1142.787354  -23125.00000     44.273193
    3902           0     -1632.069946   1142.787354  -23375.00000     42.523361
    3903           0     -1632.069946   1142.787354  -23625.00000     40.860867
    3904           0     -1632.069946   1142.787354  -23875.00000     39.296703
    3905           0     -1632.069946   1142.787354  -24125.00000     37.897827
    3906           0     -1632.069946   1142.787354  -24375.00000     36.602879
    3907           0     -1632.069946   1142.787354  -24625.00000     35.544815
    3908           0     -1632.069946   1142.787354  -24875.00000     34.485386
    3909           0     -1632.069946   1142.787354  -25125.00000     33.873215
    3910           0     -1632.069946   1142.787354  -25375.00000     32.737617
    3911           0     -1632.069946   1142.787354  -25625.00000     32.827015
    3912           0     -1632.069946   1142.787354  -25875.00000     32.015625
    3913           0     -1698.723877   1047.595581  -13625.00000     73.245209
    3914           0     -1698.723877   1047.595581  -13875.00000     79.759392
    3915           0     -1698.723877   1047.595581  -14125.00000     74.215057
    3916           0     -1698.723877   1047.595581  -14375.00000     72.397263
    3917           0     -1698.723877   1047.595581  -14625.00000     69.877998
    3918           0     -1698.723877   1047.595581  -14875.00000     67.734962
    3919           0     -1698.723877   1047.595581  -15125.00000     65.617752
    3920           0     -1698.723877   1047.595581  -15375.00000     63.782978
    3921           0     -1698.723877   1047.595581  -15625.00000     62.127640
    3922           0     -1698.723877   1047.595581  -15875.00000     60.744446
    3923           0     -1698.723877   1047.595581  -16125.00000     59.637756
    3924           0     -1698.723877   1047.595581  -16375.00000     58.806877
    3925           0     -1698.723877   1047.595581  -16625.00000     58.272064
    3926           0     -1698.723877   1047.595581  -16875.00000     57.990097
    3927           0     -1698.723877   1047.595581  -17125.00000     57.960526
    3928           0     -1698.723877   1047.595581  -17375.00000     58.123253
    3929           0     -1698.723877   1047.595581  -17625.00000     58.457005
    3930           0     -1698.723877   1047.595581  -17875.00000     58.901989
    3931           0     -1698.723877   1047.595581  -18125.00000     59.427284
    3932           0     -1698.723877   1047.595581  -18375.00000     59.982731
    3933           0     -1698.723877   1047.595581  -18625.00000     60.536823
    3934           0     -1698.723877   1047.595581  -18875.00000     61.051361
    3935           0     -1698.723877   1047.595581  -19125.00000     61.498463
    3936           0     -1698.723877   1047.595581  -19375.00000     61.850502
    3937           0     -1698.723877   1047.595581  -19625.00000     62.084381
    3938           0     -1698.723877   1047.595581  -19875.00000     62.180878
    3939           0     -1698.723877   1047.595581  -20125.00000     62.121750
    3940           0     -1698.723877   1047.595581  -20375.00000     61.894783
    3941           0     -1698.723877   1047.595581  -20625.00000     61.486744
    3942           0     -1698.723877   1047.595581  -20875.00000     60.892303
    3943           0     -1698.723877   1047.595581  -21125.00000     60.103970
    3944           0     -1698.723877   1047.595581  -21375.00000     59.124962
    3945           0     -1698.723877   1047.595581  -21625.00000     57.955139
    3946           0     -1698.723877   1047.595581  -21875.00000     56.609192
    3947           0     -1698.723877   1047.595581  -22125.00000     55.096043
    3948           0     -1698.723877   1047.595581  -22375.00000     53.447014
    3949           0     -1698.723877   1047.595581  -22625.00000     51.679672
    3950           0     -1698.723877   1047.595581  -22875.00000     49.847149
    3951           0     -1698.723877   1047.595581  -23125.00000     47.968575
    3952           0     -1698.723877   1047.595581  -23375.00000     46.123222
    3953           0     -1698.723877   1047.595581  -23625.00000     44.310303
    3954           0     -1698.723877   1047.595581  -23875.00000     42.642365
    3955           0     -1698.723877   1047.595581  -24125.00000     41.054512
    3956           0     -1698.723877   1047.595581  -24375.00000     39.718719
    3957           0     -1698.723877   1047.595581  -24625.00000     38.437256
    3958           0     -1698.723877   1047.595581  -24875.00000     37.517334
    3959           0     -1698.723877   1047.595581  -25125.00000     36.475914
    3960           0     -1698.723877   1047.595581  -25375.00000     36.102077
    3961           0     -1698.723877   1047.595581  -25625.00000     35.095276
    3962           0     -1698.723877   1047.595581  -25875.00000     34.659023
    3963           0     -1756.606689    947.339722  -13625.00000     87.169563
    3964           0     -1756.606689    947.339722  -13875.00000     84.783157
    3965           0     -1756.606689    947.339722  -14125.00000     81.768814
    3966           0     -1756.606689    947.339722  -14375.00000     77.579819
    3967           0     -1756.606689    947.339722  -14625.00000     74.191887
    3968           0     -1756.606689    947.339722  -14875.00000     70.876129
    3969           0     -1756.606689    947.339722  -15125.00000     67.657471
    3970           0     -1756.606689    947.339722  -15375.00000     64.758018
    3971           0     -1756.606689    947.339722  -15625.00000     62.033173
    3972           0     -1756.606689    947.339722  -15875.00000     59.687443
    3973           0     -1756.606689    947.339722  -16125.00000     57.609390
    3974           0     -1756.606689    947.339722  -16375.00000     55.939060
    3975           0     -1756.606689    947.339722  -16625.00000     54.587307
    3976           0     -1756.606689    947.339722  -16875.00000     53.621094
    3977           0     -1756.606689    947.339722  -17125.00000     52.964943
    3978           0     -1756.606689    947.339722  -17375.00000     52.625607
    3979           0     -1756.606689    947.339722  -17625.00000     52.536209
    3980           0     -1756.606689    947.339722  -17875.00000     52.667400
    3981           0     -1756.606689    947.339722  -18125.00000     52.961170
    3982           0     -1756.606689    947.339722  -18375.00000     53.374081
    3983           0     -1756.606689    947.339722  -18625.00000     53.858597
    3984           0     -1756.606689    947.339722  -18875.00000     54.371029
    3985           0     -1756.606689    947.339722  -19125.00000     54.874767
    3986           0     -1756.606689    947.339722  -19375.00000     55.332256
    3987           0     -1756.606689    947.339722  -19625.00000     55.717163
    3988           0     -1756.606689    947.339722  -19875.00000     55.999908
    3989           0     -1756.606689    947.339722  -20125.00000     56.163570
    3990           0     -1756.606689    947.339722  -20375.00000     56.186394
    3991           0     -1756.606689    947.339722  -20625.00000     56.060207
    3992           0     -1756.606689    947.339722  -20875.00000     55.770374
    3993           0     -1756.606689    947.339722  -21125.00000     55.317661
    3994           0     -1756.606689    947.339722  -21375.00000     54.693623
    3995           0     -1756.606689    947.339722  -21625.00000     53.909657
    3996           0     -1756.606689    947.339722  -21875.00000     52.963306
    3997           0     -1756.606689    947.339722  -22125.00000     51.878674
    3998           0     -1756.606689    947.339722  -22375.00000     50.659584
    3999           0     -1756.606689    947.339722  -22625.00000     49.346504
    4000           0     -1756.606689    947.339722  -22875.00000     47.948578
    4001           0     -1756.606689    947.339722  -23125.00000     46.524948
    4002           0     -1756.606689    947.339722  -23375.00000     45.088409
    4003           0     -1756.606689    947.339722  -23625.00000     43.711815
    4004           0     -1756.606689    947.339722  -23875.00000     42.414467
    4005           0     -1756.606689    947.339722  -24125.00000     41.261024
    4006           0     -1756.606689    947.339722  -24375.00000     40.301224
    4007           0     -1756.606689    947.339722  -24625.00000     39.505024
    4008           0     -1756.606689    947.339722  -24875.00000     39.122711
    4009           0     -1756.606689    947.339722  -25125.00000     38.631489
    4010           0     -1756.606689    947.339722  -25375.00000     38.608997
    4011           0     -1756.606689    947.339722  -25625.00000     40.670582
    4012           0     -1756.606689    947.339722  -25875.00000     35.517273
    4013           0     -1805.718140    842.019836  -13625.00000     90.757118
    4014           0     -1805.718140    842.019836  -13875.00000    100.194183
    4015           0     -1805.718140    842.019836  -14125.00000     89.094650
    4016           0     -1805.718140    842.019836  -14375.00000     84.210258
    4017           0     -1805.718140    842.019836  -14625.00000     79.671196
    4018           0     -1805.718140    842.019836  -14875.00000     74.223862
    4019           0     -1805.718140    842.019836  -15125.00000     69.690491
    4020           0     -1805.718140    842.019836  -15375.00000     64.926872
    4021           0     -1805.718140    842.019836  -15625.00000     60.701641
    4022           0     -1805.718140    842.019836  -15875.00000     56.601650
    4023           0     -1805.718140    842.019836  -16125.00000     52.997402
    4024           0     -1805.718140    842.019836  -16375.00000     49.742649
    4025           0     -1805.718140    842.019836  -16625.00000     47.019493
    4026           0     -1805.718140    842.019836  -16875.00000     44.794384
    4027           0     -1805.718140    842.019836  -17125.00000     43.127522
    4028           0     -1805.718140    842.019836  -17375.00000     42.002026
    4029           0     -1805.718140    842.019836  -17625.00000     41.384106
    4030           0     -1805.718140    842.019836  -17875.00000     41.225723
    4031           0     -1805.718140    842.019836  -18125.00000     41.433159
    4032           0     -1805.718140    842.019836  -18375.00000     41.933105
    4033           0     -1805.718140    842.019836  -18625.00000     42.618290
    4034           0     -1805.718140    842.019836  -18875.00000     43.417568
    4035           0     -1805.718140    842.019836  -19125.00000     44.241806
    4036           0     -1805.718140    842.019836  -19375.00000     45.038624
    4037           0     -1805.718140    842.019836  -19625.00000     45.746063
    4038           0     -1805.718140    842.019836  -19875.00000     46.333652
    4039           0     -1805.718140    842.019836  -20125.00000     46.763779
    4040           0     -1805.718140    842.019836  -20375.00000     47.025684
    4041           0     -1805.718140    842.019836  -20625.00000     47.100498
    4042           0     -1805.718140    842.019836  -20875.00000     46.994450
    4043           0     -1805.718140    842.019836  -21125.00000     46.702351
    4044           0     -1805.718140    842.019836  -21375.00000     46.245583
    4045           0     -1805.718140    842.019775  -21625.00000     45.628223
    4046           0     -1805.718140    842.019775  -21875.00000     44.886074
    4047           0     -1805.718140    842.019775  -22125.00000     44.029320
    4048           0     -1805.718140    842.019775  -22375.00000     43.107094
    4049           0     -1805.718140    842.019775  -22625.00000     42.133316
    4050           0     -1805.718140    842.019775  -22875.00000     41.169941
    4051           0     -1805.718140    842.019775  -23125.00000     40.234570
    4052           0     -1805.718140    842.019775  -23375.00000     39.398998
    4053           0     -1805.718140    842.019775  -23625.00000     38.689827
    4054           0     -1805.718140    842.019775  -23875.00000     38.175289
    4055           0     -1805.718140    842.019775  -24125.00000     37.908501
    4056           0     -1805.718140    842.019775  -24375.00000     37.911465
    4057           0     -1805.718140    842.019775  -24625.00000     38.297993
    4058           0     -1805.718140    842.019775  -24875.00000     38.953075
    4059           0     -1805.718140    842.019775  -25125.00000     40.210587
    4060           0     -1805.718140    842.019775  -25375.00000     40.866024
    4061           0     -1805.718140    842.019775  -25625.00000     45.252033
    4062           0     -1805.718140    842.019836  -25875.00000     42.190399
    4063           0     -1854.829468    736.699951  -13625.00000    103.725609
    4064           0     -1854.829468    736.699951  -13875.00000    110.762878
    4065           0     -1854.829468    736.699951  -14125.00000     98.651939
    4066           0     -1854.829468    736.699951  -14375.00000     93.338867
    4067           0     -1854.829468    736.699951  -14625.00000     86.218681
    4068           0     -1854.829468    736.699951  -14875.00000     80.090317
    4069           0     -1854.829468    736.699951  -15125.00000     73.777428
    4070           0     -1854.829468    736.699951  -15375.00000     68.009476
    4071           0     -1854.829468    736.699951  -15625.00000     62.422363
    4072           0     -1854.829468    736.699951  -15875.00000     57.307140
    4073           0     -1854.829468    736.699951  -16125.00000     52.680378
    4074           0     -1854.829468    736.699951  -16375.00000     48.650974
    4075           0     -1854.829468    736.699951  -16625.00000     45.385418
    4076           0     -1854.829468    736.699951  -16875.00000     42.906181
    4077           0     -1854.829468    736.699951  -17125.00000     41.349609
    4078           0     -1854.829468    736.699951  -17375.00000     40.622654
    4079           0     -1854.829468    736.699951  -17625.00000     40.710236
    4080           0     -1854.829468    736.699951  -17875.00000     41.406799
    4081           0     -1854.829468    736.699951  -18125.00000     42.584461
    4082           0     -1854.829468    736.699951  -18375.00000     44.028538
    4083           0     -1854.829468    736.699951  -18625.00000     45.607159
    4084           0     -1854.829468    736.699951  -18875.00000     47.165833
    4085           0     -1854.829468    736.699951  -19125.00000     48.614086
    4086           0     -1854.829468    736.699951  -19375.00000     49.858845
    4087           0     -1854.829468    736.699951  -19625.00000     50.850052
    4088           0     -1854.829468    736.699951  -19875.00000     51.537666
    4089           0     -1854.829468    736.699951  -20125.00000     51.902874
    4090           0     -1854.829468    736.699951  -20375.00000     51.923962
    4091           0     -1854.829468    736.699951  -20625.00000     51.607662
    4092           0     -1854.829468    736.699951  -20875.00000     50.952271
    4093           0     -1854.829468    736.699951  -21125.00000     49.988647
    4094           0     -1854.829468    736.699951  -21375.00000     48.731560
    4095           0     -1854.829468    736.699951  -21625.00000     47.237534
    4096           0     -1854.829468    736.699951  -21875.00000     45.537285
    4097           0     -1854.829468    736.699951  -22125.00000     43.717484
    4098           0     -1854.829468    736.699951  -22375.00000     41.825069
    4099           0     -1854.829468    736.699951  -22625.00000     39.980774
    4100           0     -1854.829468    736.699951  -22875.00000     38.245605
    4101           0     -1854.829468    736.699890  -23125.00000     36.771339
    4102           0     -1854.829468    736.699890  -23375.00000     35.614349
    4103           0     -1854.829468    736.699890  -23625.00000     34.938572
    4104           0     -1854.829468    736.699890  -23875.00000     34.739250
    4105           0     -1854.829468    736.699890  -24125.00000     35.176025
    4106           0     -1854.829468    736.699890  -24375.00000     36.090607
    4107           0     -1854.829468    736.699890  -24625.00000     37.738289
    4108           0     -1854.829468    736.699890  -24875.00000     39.639000
    4109           0     -1854.829468    736.699890  -25125.00000     42.495579
    4110           0     -1854.829468    736.699890  -25375.00000     45.312435
    4111           0     -1854.829468    736.699890  -25625.00000     48.864777
    4112           0     -1854.829468    736.699951  -25875.00000     51.627712
    4113           0     -1894.423584    627.916016  -13625.00000    121.874580
    4114           0     -1894.423584    627.916016  -13875.00000    115.663139
    4115           0     -1894.423584    627.916016  -14125.00000    106.846275
    4116           0     -1894.423584    627.916016  -14375.00000     98.741600
    4117           0     -1894.423584    627.916016  -14625.00000     90.098259
    4118           0     -1894.423584    627.916016  -14875.00000     82.681061
    4119           0     -1894.423584    627.916016  -15125.00000     74.868896
    4120           0     -1894.423584    627.916016  -15375.00000     68.087723
    4121           0     -1894.423584    627.916016  -15625.00000     61.431004
    4122           0     -1894.423584    627.916016  -15875.00000     55.830246
    4123           0     -1894.423584    627.916016  -16125.00000     50.876591
    4124           0     -1894.423584    627.916016  -16375.00000     47.217072
    4125           0     -1894.423584    627.916016  -16625.00000     44.685413
    4126           0     -1894.423584    627.916016  -16875.00000     43.583542
    4127           0     -1894.423584    627.916016  -17125.00000     43.685299
    4128           0     -1894.423584    627.916016  -17375.00000     44.882729
    4129           0     -1894.423584    627.916016  -17625.00000     46.841465
    4130           0     -1894.423584    627.916016  -17875.00000     49.294250
    4131           0     -1894.423584    627.916016  -18125.00000     51.976398
    4132           0     -1894.423584    627.916016  -18375.00000     54.675484
    4133           0     -1894.423584    627.916016  -18625.00000     57.240120
    4134           0     -1894.423584    627.916016  -18875.00000     59.539722
    4135           0     -1894.423584    627.916016  -19125.00000     61.496880
    4136           0     -1894.423584    627.916016  -19375.00000     63.038021
    4137           0     -1894.423584    627.916016  -19625.00000     64.125435
    4138           0     -1894.423584    627.916016  -19875.00000     64.722679
    4139           0     -1894.423584    627.916016  -20125.00000     64.813324
    4140           0     -1894.423584    627.916016  -20375.00000     64.388145
    4141           0     -1894.423584    627.916016  -20625.00000     63.443447
    4142           0     -1894.423584    627.916016  -20875.00000     61.994781
    4143           0     -1894.423584    627.916016  -21125.00000     60.048012
    4144           0     -1894.423584    627.916016  -21375.00000     57.647243
    4145           0     -1894.423584    627.916016  -21625.00000     54.808628
    4146           0     -1894.423584    627.916016  -21875.00000     51.616085
    4147           0     -1894.423584    627.916016  -22125.00000     48.102062
    4148           0     -1894.423584    627.916016  -22375.00000     44.413467
    4149           0     -1894.423584    627.916016  -22625.00000     40.615871
    4150           0     -1894.423584    627.916016  -22875.00000     36.963337
    4151           0     -1894.423584    627.916016  -23125.00000     33.587524
    4152           0     -1894.423584    627.916016  -23375.00000     30.902754
    4153           0     -1894.423584    627.916016  -23625.00000     29.087229
    4154           0     -1894.423584    627.916016  -23875.00000     28.601774
    4155           0     -1894.423584    627.916016  -24125.00000     29.347237
    4156           0     -1894.423584    627.916016  -24375.00000     31.503736
    4157           0     -1894.423584    627.916016  -24625.00000     34.487091
    4158           0     -1894.423584    627.916016  -24875.00000     38.600525
    4159           0     -1894.423584    627.916016  -25125.00000     42.917198
    4160           0     -1894.423584    627.916016  -25375.00000     47.850723
    4161           0     -1894.423584    627.916016  -25625.00000     56.440075
    4162           0     -1894.423584    627.916016  -25875.00000     52.425339
    4163           0     -1924.500366    515.667969  -13625.00000    118.120010
    4164           0     -1924.500366    515.667969  -13875.00000    128.161621
    4165           0     -1924.500366    515.667969  -14125.00000    110.474846
    4166           0     -1924.500366    515.667969  -14375.00000    101.154465
    4167           0     -1924.500366    515.667969  -14625.00000     92.473930
    4168           0     -1924.500366    515.667969  -14875.00000     82.887901
    4169           0     -1924.500366    515.667969  -15125.00000     75.081947
    4170           0     -1924.500366    515.667969  -15375.00000     67.558395
    4171           0     -1924.500366    515.667969  -15625.00000     61.755856
    4172           0     -1924.500366    515.667969  -15875.00000     57.243378
    4173           0     -1924.500366    515.667969  -16125.00000     54.682781
    4174           0     -1924.500366    515.667969  -16375.00000     53.871639
    4175           0     -1924.500366    515.667969  -16625.00000     54.756977
    4176           0     -1924.500366    515.667969  -16875.00000     56.979931
    4177           0     -1924.500366    515.667969  -17125.00000     60.115685
    4178           0     -1924.500366    515.667969  -17375.00000     63.835190
    4179           0     -1924.500366    515.667969  -17625.00000     67.768654
    4180           0     -1924.500366    515.667969  -17875.00000     71.733200
    4181           0     -1924.500366    515.667969  -18125.00000     75.499901
    4182           0     -1924.500366    515.667969  -18375.00000     78.985291
    4183           0     -1924.500366    515.667969  -18625.00000     82.057930
    4184           0     -1924.500366    515.667969  -18875.00000     84.682625
    4185           0     -1924.500366    515.667969  -19125.00000     86.784348
    4186           0     -1924.500366    515.667969  -19375.00000     88.349228
    4187           0     -1924.500366    515.667969  -19625.00000     89.334816
    4188           0     -1924.500366    515.667969  -19875.00000     89.736221
    4189           0     -1924.500366    515.667969  -20125.00000     89.531281
    4190           0     -1924.500366    515.667969  -20375.00000     88.718735
    4191           0     -1924.500366    515.667969  -20625.00000     87.291649
    4192           0     -1924.500366    515.667969  -20875.00000     85.250404
    4193           0     -1924.500366    515.667969  -21125.00000     82.603470
    4194           0     -1924.500366    515.667969  -21375.00000     79.352882
    4195           0     -1924.500366    515.667969  -21625.00000     75.527924
    4196           0     -1924.500366    515.667969  -21875.00000     71.134285
    4197           0     -1924.500366    515.667969  -22125.00000     66.234856
    4198           0     -1924.500366    515.667969  -22375.00000     60.845444
    4199           0     -1924.500366    515.667969  -22625.00000     55.089935
    4200           0     -1924.500366    515.667969  -22875.00000     49.016949
    4201           0     -1924.500366    515.667969  -23125.00000     42.878353
    4202           0     -1924.500366    515.667969  -23375.00000     36.845219
    4203           0     -1924.500366    515.667969  -23625.00000     31.484360
    4204           0     -1924.500366    515.667969  -23875.00000     27.380812
    4205           0     -1924.500366    515.667969  -24125.00000     25.565884
    4206           0     -1924.500366    515.667969  -24375.00000     26.660986
    4207           0     -1924.500366    515.667969  -24625.00000     30.248241
    4208           0     -1924.500366    515.667969  -24875.00000     35.983318
    4209           0     -1924.500366    515.667969  -25125.00000     42.380566
    4210           0     -1924.500366    515.667969  -25375.00000     48.956524
    4211           0     -1924.500366    515.667969  -25625.00000     62.044010
    4212           0     -1924.500366    515.667969  -25875.00000     56.595909
    4213           0     -1954.577148    403.420013  -13625.00000    126.723915
    4214           0     -1954.577148    403.420013  -13875.00000    135.458984
    4215           0     -1954.577148    403.420013  -14125.00000    116.222069
    4216           0     -1954.577148    403.420013  -14375.00000    107.079018
    4217           0     -1954.577148    403.420013  -14625.00000     96.574867
    4218           0     -1954.577148    403.420013  -14875.00000     87.328590
    4219           0     -1954.577148    403.420013  -15125.00000     79.260452
    4220           0     -1954.577148    403.420013  -15375.00000     72.873894
    4221           0     -1954.577148    403.420013  -15625.00000     68.766258
    4222           0     -1954.577148    403.420013  -15875.00000     66.905586
    4223           0     -1954.577148    403.420013  -16125.00000     67.555748
    4224           0     -1954.577148    403.420013  -16375.00000     69.997314
    4225           0     -1954.577148    403.420013  -16625.00000     74.005333
    4226           0     -1954.577148    403.420013  -16875.00000     78.778069
    4227           0     -1954.577148    403.420013  -17125.00000     84.082176
    4228           0     -1954.577148    403.420013  -17375.00000     89.409286
    4229           0     -1954.577148    403.420013  -17625.00000     94.650230
    4230           0     -1954.577148    403.420013  -17875.00000     99.533653
    4231           0     -1954.577148    403.420013  -18125.00000    104.023804
    4232           0     -1954.577148    403.420013  -18375.00000    107.979820
    4233           0     -1954.577148    403.420013  -18625.00000    111.396591
    4234           0     -1954.577148    403.420013  -18875.00000    114.199387
    4235           0     -1954.577148    403.420013  -19125.00000    116.393372
    4236           0     -1954.577148    403.420013  -19375.00000    117.936371
    4237           0     -1954.577148    403.420013  -19625.00000    118.835060
    4238           0     -1954.577148    403.420013  -19875.00000    119.062553
    4239           0     -1954.577148    403.420013  -20125.00000    118.623581
    4240           0     -1954.577148    403.420013  -20375.00000    117.497940
    4241           0     -1954.577148    403.420013  -20625.00000    115.687592
    4242           0     -1954.577148    403.420013  -20875.00000    113.175789
    4243           0     -1954.577148    403.420013  -21125.00000    109.962669
    4244           0     -1954.577148    403.420013  -21375.00000    106.035812
    4245           0     -1954.577148    403.420013  -21625.00000    101.396133
    4246           0     -1954.577148    403.420013  -21875.00000     96.040894
    4247           0     -1954.577148    403.420013  -22125.00000     89.977180
    4248           0     -1954.577148    403.420013  -22375.00000     83.224403
    4249           0     -1954.577148    403.420013  -22625.00000     75.808372
    4250           0     -1954.577148    403.420013  -22875.00000     67.798874
    4251           0     -1954.577148    403.420013  -23125.00000     59.279808
    4252           0     -1954.577148    403.420013  -23375.00000     50.447994
    4253           0     -1954.577148    403.420013  -23625.00000     41.615517
    4254           0     -1954.577148    403.419983  -23875.00000     33.403214
    4255           0     -1954.577148    403.419983  -24125.00000     27.210285
    4256           0     -1954.577148    403.419983  -24375.00000     24.740652
    4257           0     -1954.577148    403.419983  -24625.00000     28.039097
    4258           0     -1954.577148    403.419983  -24875.00000     34.204136
    4259           0     -1954.577148    403.419983  -25125.00000     43.765789
    4260           0     -1954.577148    403.419983  -25375.00000     51.805454
    4261           0     -1954.577148    403.419983  -25625.00000     64.811150
    4262           0     -1954.577148    403.420013  -25875.00000     68.473427
    4263           0     -1974.679565    289.413330  -13625.00000    138.548828
    4264           0     -1974.679565    289.413330  -13875.00000    127.672836
    4265           0     -1974.679565    289.413330  -14125.00000    115.718971
    4266           0     -1974.679565    289.413330  -14375.00000    107.297447
    4267           0     -1974.679565    289.413330  -14625.00000     97.286804
    4268           0     -1974.679565    289.413330  -14875.00000     91.142906
    4269           0     -1974.679565    289.413330  -15125.00000     85.392830
    4270           0     -1974.679565    289.413330  -15375.00000     82.963264
    4271           0     -1974.679565    289.413330  -15625.00000     82.176987
    4272           0     -1974.679565    289.413330  -15875.00000     83.976288
    4273           0     -1974.679565    289.413330  -16125.00000     87.165016
    4274           0     -1974.679565    289.413330  -16375.00000     91.715233
    4275           0     -1974.679565    289.413330  -16625.00000     96.825645
    4276           0     -1974.679565    289.413330  -16875.00000    102.306152
    4277           0     -1974.679565    289.413330  -17125.00000    107.730370
    4278           0     -1974.679565    289.413330  -17375.00000    112.977730
    4279           0     -1974.679565    289.413330  -17625.00000    117.848915
    4280           0     -1974.679565    289.413330  -17875.00000    122.290222
    4281           0     -1974.679565    289.413330  -18125.00000    126.214943
    4282           0     -1974.679565    289.413330  -18375.00000    129.605789
    4283           0     -1974.679565    289.413330  -18625.00000    132.426758
    4284           0     -1974.679565    289.413330  -18875.00000    134.676620
    4285           0     -1974.679565    289.413330  -19125.00000    136.339111
    4286           0     -1974.679565    289.413330  -19375.00000    137.418076
    4287           0     -1974.679565    289.413330  -19625.00000    137.901138
    4288           0     -1974.679565    289.413330  -19875.00000    137.792038
    4289           0     -1974.679565    289.413330  -20125.00000    137.074005
    4290           0     -1974.679565    289.413330  -20375.00000    135.748856
    4291           0     -1974.679565    289.413330  -20625.00000    133.790939
    4292           0     -1974.679565    289.413330  -20875.00000    131.201096
    4293           0     -1974.679565    289.413330  -21125.00000    127.942612
    4294           0     -1974.679565    289.413330  -21375.00000    124.018707
    4295           0     -1974.679565    289.413330  -21625.00000    119.381439
    4296           0     -1974.679565    289.413330  -21875.00000    114.043694
    4297           0     -1974.679565    289.413330  -22125.00000    107.948669
    4298           0     -1974.679565    289.413361  -22375.00000    101.132614
    4299           0     -1974.679565    289.413361  -22625.00000     93.539063
    4300           0     -1974.679565    289.413361  -22875.00000     85.254601
    4301           0     -1974.679565    289.413361  -23125.00000     76.252083
    4302           0     -1974.679565    289.413361  -23375.00000     66.730247
    4303           0     -1974.679565    289.413361  -23625.00000     56.797798
    4304           0     -1974.679565    289.413361  -23875.00000     46.952805
    4305           0     -1974.679565    289.413361  -24125.00000     37.930107
    4306           0     -1974.679565    289.413361  -24375.00000     31.231260
    4307           0     -1974.679565    289.413361  -24625.00000     29.495872
    4308           0     -1974.679565    289.413361  -24875.00000     32.867355
    4309           0     -1974.679565    289.413361  -25125.00000     41.489433
    4310           0     -1974.679565    289.413361  -25375.00000     49.859001
    4311           0     -1974.679565    289.413361  -25625.00000     63.692440
    4312           0     -1974.679565    289.413330  -25875.00000     67.999779
    4313           0     -1984.807617    173.647873  -13625.00000    118.241417
    4314           0     -1984.807617    173.647873  -13875.00000    122.768509
    4315           0     -1984.807617    173.647873  -14125.00000    109.595421
    4316           0     -1984.807617    173.647873  -14375.00000    104.798080
    4317           0     -1984.807617    173.647873  -14625.00000    100.009659
    4318           0     -1984.807617    173.647873  -14875.00000     97.895287
    4319           0     -1984.807617    173.647873  -15125.00000     97.849670
    4320           0     -1984.807617    173.647873  -15375.00000     99.718704
    4321           0     -1984.807617    173.647873  -15625.00000    102.910439
    4322           0     -1984.807617    173.647873  -15875.00000    107.046539
    4323           0     -1984.807617    173.647873  -16125.00000    111.622017
    4324           0     -1984.807617    173.647873  -16375.00000    116.386253
    4325           0     -1984.807617    173.647873  -16625.00000    121.038559
    4326           0     -1984.807617    173.647873  -16875.00000    125.467323
    4327           0     -1984.807617    173.647873  -17125.00000    129.524292
    4328           0     -1984.807617    173.647873  -17375.00000    133.182343
    4329           0     -1984.807617    173.647888  -17625.00000    136.380219
    4330           0     -1984.807617    173.647888  -17875.00000    139.130508
    4331           0     -1984.807617    173.647888  -18125.00000    141.415283
    4332           0     -1984.807617    173.647888  -18375.00000    143.259811
    4333           0     -1984.807617    173.647888  -18625.00000    144.664627
    4334           0     -1984.807617    173.647888  -18875.00000    145.653030
    4335           0     -1984.807617    173.647888  -19125.00000    146.230881
    4336           0     -1984.807617    173.647888  -19375.00000    146.412048
    4337           0     -1984.807617    173.647873  -19625.00000    146.201019
    4338           0     -1984.807617    173.647873  -19875.00000    145.598145
    4339           0     -1984.807617    173.647873  -20125.00000    144.603653
    4340           0     -1984.807617    173.647873  -20375.00000    143.201859
    4341           0     -1984.807617    173.647888  -20625.00000    141.388000
    4342           0     -1984.807617    173.647888  -20875.00000    139.128632
    4343           0     -1984.807617    173.647888  -21125.00000    136.415146
    4344           0     -1984.807617    173.647888  -21375.00000    133.194611
    4345           0     -1984.807617    173.647888  -21625.00000    129.458603
    4346           0     -1984.807617    173.647888  -21875.00000    125.133751
    4347           0     -1984.807617    173.647888  -22125.00000    120.219566
    4348           0     -1984.807617    173.647888  -22375.00000    114.623619
    4349           0     -1984.807617    173.647888  -22625.00000    108.368462
    4350           0     -1984.807617    173.647888  -22875.00000    101.350365
    4351           0     -1984.807617    173.647888  -23125.00000     93.643440
    4352           0     -1984.807617    173.647888  -23375.00000     85.159958
    4353           0     -1984.807617    173.647888  -23625.00000     76.086090
    4354           0     -1984.807617    173.647888  -23875.00000     66.450516
    4355           0     -1984.807617    173.647888  -24125.00000     56.717873
    4356           0     -1984.807617    173.647888  -24375.00000     47.474163
    4357           0     -1984.807617    173.647888  -24625.00000     40.007988
    4358           0     -1984.807617    173.647888  -24875.00000     36.741226
    4359           0     -1984.807617    173.647903  -25125.00000     38.657703
    4360           0     -1984.807617    173.647903  -25375.00000     44.837139
    4361           0     -1984.807617    173.647903  -25625.00000     59.274361
    4362           0     -1984.807617    173.647888  -25875.00000     55.231205
    4363           0     -1994.935791     57.882427  -13625.00000    105.275246
    4364           0     -1994.935791     57.882427  -13875.00000    118.988197
    4365           0     -1994.935791     57.882427  -14125.00000    111.642334
    4366           0     -1994.935791     57.882427  -14375.00000    110.066338
    4367           0     -1994.935791     57.882427  -14625.00000    110.530899
    4368           0     -1994.935791     57.882427  -14875.00000    112.299210
    4369           0     -1994.935791     57.882427  -15125.00000    116.283508
    4370           0     -1994.935791     57.882427  -15375.00000    121.029343
    4371           0     -1994.935791     57.882427  -15625.00000    126.353142
    4372           0     -1994.935791     57.882427  -15875.00000    131.517960
    4373           0     -1994.935791     57.882427  -16125.00000    136.437988
    4374           0     -1994.935791     57.882427  -16375.00000    140.796997
    4375           0     -1994.935791     57.882427  -16625.00000    144.639084
    4376           0     -1994.935791     57.882427  -16875.00000    147.844009
    4377           0     -1994.935791     57.882427  -17125.00000    150.504761
    4378           0     -1994.935791     57.882427  -17375.00000    152.588989
    4379           0     -1994.935791     57.882427  -17625.00000    154.196533
    4380           0     -1994.935791     57.882427  -17875.00000    155.332870
    4381           0     -1994.935791     57.882427  -18125.00000    156.086258
    4382           0     -1994.935791     57.882427  -18375.00000    156.474976
    4383           0     -1994.935791     57.882427  -18625.00000    156.568222
    4384           0     -1994.935791     57.882427  -18875.00000    156.384140
    4385           0     -1994.935791     57.882427  -19125.00000    155.970657
    4386           0     -1994.935791     57.882427  -19375.00000    155.339218
    4387           0     -1994.935791     57.882423  -19625.00000    154.516312
    4388           0     -1994.935791     57.882420  -19875.00000    153.503281
    4389           0     -1994.935791     57.882420  -20125.00000    152.305298
    4390           0     -1994.935791     57.882420  -20375.00000    150.911957
    4391           0     -1994.935791     57.882420  -20625.00000    149.306519
    4392           0     -1994.935791     57.882420  -20875.00000    147.466019
    4393           0     -1994.935791     57.882420  -21125.00000    145.350449
    4394           0     -1994.935791     57.882420  -21375.00000    142.924484
    4395           0     -1994.935791     57.882420  -21625.00000    140.123047
    4396           0     -1994.935791     57.882420  -21875.00000    136.900284
    4397           0     -1994.935791     57.882420  -22125.00000    133.164810
    4398           0     -1994.935791     57.882420  -22375.00000    128.865433
    4399           0     -1994.935791     57.882420  -22625.00000    123.885765
    4400           0     -1994.935791     57.882420  -22875.00000    118.180550
    4401           0     -1994.935791     57.882420  -23125.00000    111.616699
    4402           0     -1994.935791     57.882420  -23375.00000    104.179138
    4403           0     -1994.935791     57.882420  -23625.00000     95.749435
    4404           0     -1994.935791     57.882420  -23875.00000     86.412346
    4405           0     -1994.935791     57.882420  -24125.00000     76.190025
    4406           0     -1994.935791     57.882420  -24375.00000     65.548203
    4407           0     -1994.935791     57.882420  -24625.00000     55.173424
    4408           0     -1994.935791     57.882420  -24875.00000     47.004574
    4409           0     -1994.935791     57.882420  -25125.00000     43.406277
    4410           0     -1994.935791     57.882420  -25375.00000     45.243149
    4411           0     -1994.935791     57.882420  -25625.00000     55.577267
    4412           0     -1994.935791     57.882423  -25875.00000     51.051910
    4413           0     -1997.493652    -50.000221  -13625.00000    101.470566
    4414           0     -1997.493652    -50.000221  -13875.00000    113.788612
    4415           0     -1997.493652    -50.000221  -14125.00000    117.372047
    4416           0     -1997.493652    -50.000221  -14375.00000    121.093163
    4417           0     -1997.493652    -50.000221  -14625.00000    124.580025
    4418           0     -1997.493652    -50.000221  -14875.00000    128.236572
    4419           0     -1997.493652    -50.000221  -15125.00000    132.243164
    4420           0     -1997.493652    -50.000221  -15375.00000    136.242279
    4421           0     -1997.493652    -50.000221  -15625.00000    139.887161
    4422           0     -1997.493652    -50.000221  -15875.00000    143.039703
    4423           0     -1997.493652    -50.000221  -16125.00000    145.493927
    4424           0     -1997.493652    -50.000221  -16375.00000    147.309998
    4425           0     -1997.493652    -50.000221  -16625.00000    148.414291
    4426           0     -1997.493652    -50.000221  -16875.00000    148.944839
    4427           0     -1997.493652    -50.000221  -17125.00000    148.897781
    4428           0     -1997.493652    -50.000221  -17375.00000    148.419266
    4429           0     -1997.493652    -50.000221  -17625.00000    147.535751
    4430           0     -1997.493652    -50.000221  -17875.00000    146.374298
    4431           0     -1997.493652    -50.000221  -18125.00000    144.969711
    4432           0     -1997.493652    -50.000221  -18375.00000    143.422226
    4433           0     -1997.493652    -50.000221  -18625.00000    141.763214
    4434           0     -1997.493652    -50.000221  -18875.00000    140.066010
    4435           0     -1997.493652    -50.000221  -19125.00000    138.352417
    4436           0     -1997.493652    -50.000221  -19375.00000    136.670975
    4437           0     -1997.493652    -50.000221  -19625.00000    135.030655
    4438           0     -1997.493652    -50.000221  -19875.00000    133.457260
    4439           0     -1997.493652    -50.000221  -20125.00000    131.944595
    4440           0     -1997.493652    -50.000221  -20375.00000    130.496552
    4441           0     -1997.493652    -50.000221  -20625.00000    129.089752
    4442           0     -1997.493652    -50.000221  -20875.00000    127.705238
    4443           0     -1997.493652    -50.000221  -21125.00000    126.300865
    4444           0     -1997.493652    -50.000221  -21375.00000    124.832649
    4445           0     -1997.493652    -50.000221  -21625.00000    123.238754
    4446           0     -1997.493652    -50.000221  -21875.00000    121.447495
    4447           0     -1997.493652    -50.000221  -22125.00000    119.378998
    4448           0     -1997.493652    -50.000221  -22375.00000    116.932014
    4449           0     -1997.493652    -50.000221  -22625.00000    114.015259
    4450           0     -1997.493652    -50.000221  -22875.00000    110.500099
    4451           0     -1997.493652    -50.000221  -23125.00000    106.301170
    4452           0     -1997.493652    -50.000221  -23375.00000    101.275421
    4453           0     -1997.493652    -50.000221  -23625.00000     95.387657
    4454           0     -1997.493652    -50.000221  -23875.00000     88.528099
    4455           0     -1997.493652    -50.000221  -24125.00000     80.842186
    4456           0     -1997.493652    -50.000221  -24375.00000     72.405090
    4457           0     -1997.493652    -50.000221  -24625.00000     63.966488
    4458           0     -1997.493652    -50.000221  -24875.00000     56.055298
    4459           0     -1997.493652    -50.000221  -25125.00000     50.840969
    4460           0     -1997.493652    -50.000221  -25375.00000     47.919819
    4461           0     -1997.493652    -50.000221  -25625.00000     48.474850
    4462           0     -1997.493652    -50.000221  -25875.00000     46.666702
    4463           0     -1992.480957   -150.000076  -13625.00000     99.955353
    4464           0     -1992.480957   -150.000076  -13875.00000    119.159492
    4465           0     -1992.480957   -150.000076  -14125.00000    127.342964
    4466           0     -1992.480957   -150.000076  -14375.00000    134.726959
    4467           0     -1992.480957   -150.000076  -14625.00000    138.165085
    4468           0     -1992.480957   -150.000076  -14875.00000    140.524292
    4469           0     -1992.480957   -150.000076  -15125.00000    141.642715
    4470           0     -1992.480957   -150.000076  -15375.00000    141.995773
    4471           0     -1992.480957   -150.000076  -15625.00000    141.559326
    4472           0     -1992.480957   -150.000076  -15875.00000    140.428406
    4473           0     -1992.480957   -150.000076  -16125.00000    138.632919
    4474           0     -1992.480957   -150.000076  -16375.00000    136.235428
    4475           0     -1992.480957   -150.000076  -16625.00000    133.326294
    4476           0     -1992.480957   -150.000076  -16875.00000    129.986008
    4477           0     -1992.480957   -150.000076  -17125.00000    126.325233
    4478           0     -1992.480957   -150.000076  -17375.00000    122.429108
    4479           0     -1992.480957   -150.000076  -17625.00000    118.400002
    4480           0     -1992.480957   -150.000076  -17875.00000    114.313225
    4481           0     -1992.480957   -150.000076  -18125.00000    110.252075
    4482           0     -1992.480957   -150.000076  -18375.00000    106.276176
    4483           0     -1992.480957   -150.000076  -18625.00000    102.449265
    4484           0     -1992.480957   -150.000076  -18875.00000     98.814880
    4485           0     -1992.480957   -150.000076  -19125.00000     95.420746
    4486           0     -1992.480957   -150.000076  -19375.00000     92.295975
    4487           0     -1992.480957   -150.000076  -19625.00000     89.475990
    4488           0     -1992.480957   -150.000076  -19875.00000     86.976494
    4489           0     -1992.480957   -150.000076  -20125.00000     84.822113
    4490           0     -1992.480957   -150.000076  -20375.00000     83.013489
    4491           0     -1992.480957   -150.000076  -20625.00000     81.562103
    4492           0     -1992.480957   -150.000076  -20875.00000     80.448738
    4493           0     -1992.480957   -150.000076  -21125.00000     79.665840
    4494           0     -1992.480957   -150.000076  -21375.00000     79.168045
    4495           0     -1992.480957   -150.000076  -21625.00000     78.921844
    4496           0     -1992.480957   -150.000076  -21875.00000     78.851776
    4497           0     -1992.480957   -150.000076  -22125.00000     78.894226
    4498           0     -1992.480957   -150.000076  -22375.00000     78.945969
    4499           0     -1992.480957   -150.000076  -22625.00000     78.915802
    4500           0     -1992.480957   -150.000076  -22875.00000     78.684891
    4501           0     -1992.480957   -150.000076  -23125.00000     78.149307
    4502           0     -1992.480957   -150.000076  -23375.00000     77.200912
    4503           0     -1992.480957   -150.000076  -23625.00000     75.760971
    4504           0     -1992.480957   -150.000076  -23875.00000     73.773125
    4505           0     -1992.480957   -150.000076  -24125.00000     71.253693
    4506           0     -1992.480957   -150.000076  -24375.00000     68.216568
    4507           0     -1992.480957   -150.000076  -24625.00000     64.851089
    4508           0     -1992.480957   -150.000076  -24875.00000     61.007320
    4509           0     -1992.480957   -150.000076  -25125.00000     57.277290
    4510           0     -1992.480957   -150.000076  -25375.00000     51.656548
    4511           0     -1992.480957   -150.000076  -25625.00000     47.053146
    4512           0     -1992.480957   -150.000076  -25875.00000     35.958435
    4513           0     -1979.795044   -273.648315  -13625.00000    126.701126
    4514           0     -1979.795044   -273.648315  -13875.00000    135.613449
    4515           0     -1979.795044   -273.648315  -14125.00000    134.831665
    4516           0     -1979.795044   -273.648315  -14375.00000    136.804596
    4517           0     -1979.795044   -273.648315  -14625.00000    135.669662
    4518           0     -1979.795044   -273.648315  -14875.00000    136.578064
    4519           0     -1979.795044   -273.648315  -15125.00000    136.330704
    4520           0     -1979.795044   -273.648315  -15375.00000    136.903503
    4521           0     -1979.795044   -273.648315  -15625.00000    136.675812
    4522           0     -1979.795044   -273.648315  -15875.00000    136.527039
    4523           0     -1979.795044   -273.648315  -16125.00000    135.663605
    4524           0     -1979.795044   -273.648315  -16375.00000    134.556503
    4525           0     -1979.795044   -273.648315  -16625.00000    132.868805
    4526           0     -1979.795044   -273.648315  -16875.00000    130.892395
    4527           0     -1979.795044   -273.648315  -17125.00000    128.517776
    4528           0     -1979.795044   -273.648315  -17375.00000    125.939545
    4529           0     -1979.795044   -273.648315  -17625.00000    123.149590
    4530           0     -1979.795044   -273.648315  -17875.00000    120.280914
    4531           0     -1979.795044   -273.648315  -18125.00000    117.363708
    4532           0     -1979.795044   -273.648315  -18375.00000    114.489029
    4533           0     -1979.795044   -273.648315  -18625.00000    111.695580
    4534           0     -1979.795044   -273.648315  -18875.00000    109.044548
    4535           0     -1979.795044   -273.648315  -19125.00000    106.569702
    4536           0     -1979.795044   -273.648315  -19375.00000    104.309578
    4537           0     -1979.795044   -273.648315  -19625.00000    102.286545
    4538           0     -1979.795044   -273.648315  -19875.00000    100.519852
    4539           0     -1979.795044   -273.648315  -20125.00000     99.016396
    4540           0     -1979.795044   -273.648315  -20375.00000     97.776237
    4541           0     -1979.795044   -273.648315  -20625.00000     96.786995
    4542           0     -1979.795044   -273.648315  -20875.00000     96.027206
    4543           0     -1979.795044   -273.648315  -21125.00000     95.461685
    4544           0     -1979.795044   -273.648315  -21375.00000     95.043968
    4545           0     -1979.795044   -273.648315  -21625.00000     94.713974
    4546           0     -1979.795044   -273.648315  -21875.00000     94.396942
    4547           0     -1979.795044   -273.648315  -22125.00000     94.009239
    4548           0     -1979.795044   -273.648315  -22375.00000     93.446236
    4549           0     -1979.795044   -273.648315  -22625.00000     92.609238
    4550           0     -1979.795044   -273.648315  -22875.00000     91.365791
    4551           0     -1979.795044   -273.648315  -23125.00000     89.625465
    4552           0     -1979.795044   -273.648315  -23375.00000     87.238441
    4553           0     -1979.795044   -273.648315  -23625.00000     84.176994
    4554           0     -1979.795044   -273.648315  -23875.00000     80.300262
    4555           0     -1979.795044   -273.648315  -24125.00000     75.754715
    4556           0     -1979.795044   -273.648315  -24375.00000     70.450005
    4557           0     -1979.795044   -273.648315  -24625.00000     64.878067
    4558           0     -1979.795044   -273.648315  -24875.00000     59.005905
    4559           0     -1979.795044   -273.648315  -25125.00000     53.695492
    4560           0     -1979.795044   -273.648315  -25375.00000     48.471294
    4561           0     -1979.795044   -273.648315  -25625.00000     44.194454
    4562           0     -1979.795044   -273.648315  -25875.00000     36.628723
    4563           0     -1954.577026   -403.420563  -13625.00000    136.783264
    4564           0     -1954.577026   -403.420563  -13875.00000    155.827423
    4565           0     -1954.577026   -403.420563  -14125.00000    140.504333
    4566           0     -1954.577026   -403.420563  -14375.00000    136.309998
    4567           0     -1954.577026   -403.420563  -14625.00000    132.282761
    4568           0     -1954.577026   -403.420563  -14875.00000    129.913223
    4569           0     -1954.577026   -403.420563  -15125.00000    129.675873
    4570           0     -1954.577026   -403.420563  -15375.00000    130.307022
    4571           0     -1954.577026   -403.420563  -15625.00000    131.851868
    4572           0     -1954.577026   -403.420563  -15875.00000    133.521133
    4573           0     -1954.577026   -403.420563  -16125.00000    135.352280
    4574           0     -1954.577026   -403.420563  -16375.00000    136.940887
    4575           0     -1954.577026   -403.420563  -16625.00000    138.348404
    4576           0     -1954.577026   -403.420563  -16875.00000    139.402161
    4577           0     -1954.577026   -403.420563  -17125.00000    140.169861
    4578           0     -1954.577026   -403.420563  -17375.00000    140.601913
    4579           0     -1954.577026   -403.420563  -17625.00000    140.764252
    4580           0     -1954.577026   -403.420563  -17875.00000    140.664673
    4581           0     -1954.577026   -403.420563  -18125.00000    140.360641
    4582           0     -1954.577026   -403.420563  -18375.00000    139.880035
    4583           0     -1954.577026   -403.420563  -18625.00000    139.267349
    4584           0     -1954.577026   -403.420563  -18875.00000    138.550980
    4585           0     -1954.577026   -403.420563  -19125.00000    137.760406
    4586           0     -1954.577026   -403.420563  -19375.00000    136.914932
    4587           0     -1954.577026   -403.420563  -19625.00000    136.028290
    4588           0     -1954.577026   -403.420563  -19875.00000    135.106064
    4589           0     -1954.577026   -403.420563  -20125.00000    134.145645
    4590           0     -1954.577026   -403.420563  -20375.00000    133.136459
    4591           0     -1954.577026   -403.420563  -20625.00000    132.058655
    4592           0     -1954.577026   -403.420563  -20875.00000    130.883652
    4593           0     -1954.577026   -403.420563  -21125.00000    129.573349
    4594           0     -1954.577026   -403.420563  -21375.00000    128.079819
    4595           0     -1954.577026   -403.420563  -21625.00000    126.345718
    4596           0     -1954.577026   -403.420563  -21875.00000    124.303848
    4597           0     -1954.577026   -403.420563  -22125.00000    121.877777
    4598           0     -1954.577026   -403.420563  -22375.00000    118.984337
    4599           0     -1954.577026   -403.420563  -22625.00000    115.530708
    4600           0     -1954.577026   -403.420563  -22875.00000    111.427666
    4601           0     -1954.577026   -403.420563  -23125.00000    106.573082
    4602           0     -1954.577026   -403.420563  -23375.00000    100.894402
    4603           0     -1954.577026   -403.420563  -23625.00000     94.297607
    4604           0     -1954.577026   -403.420563  -23875.00000     86.787376
    4605           0     -1954.577026   -403.420563  -24125.00000     78.350136
    4606           0     -1954.577026   -403.420563  -24375.00000     69.287941
    4607           0     -1954.577026   -403.420563  -24625.00000     60.012939
    4608           0     -1954.577026   -403.420563  -24875.00000     51.868118
    4609           0     -1954.577026   -403.420563  -25125.00000     46.571888
    4610           0     -1954.577026   -403.420563  -25375.00000     44.888290
    4611           0     -1954.577026   -403.420563  -25625.00000     51.410145
    4612           0     -1954.577026   -403.420563  -25875.00000     44.587440
    4613           0     -1924.500244   -515.668518  -13625.00000    155.953857
    4614           0     -1924.500244   -515.668518  -13875.00000    169.434738
    4615           0     -1924.500244   -515.668518  -14125.00000    147.641739
    4616           0     -1924.500244   -515.668518  -14375.00000    140.147125
    4617           0     -1924.500244   -515.668518  -14625.00000    132.101471
    4618           0     -1924.500244   -515.668518  -14875.00000    124.921257
    4619           0     -1924.500244   -515.668518  -15125.00000    120.641762
    4620           0     -1924.500244   -515.668518  -15375.00000    117.309517
    4621           0     -1924.500244   -515.668518  -15625.00000    116.088005
    4622           0     -1924.500244   -515.668518  -15875.00000    115.760864
    4623           0     -1924.500244   -515.668518  -16125.00000    116.617317
    4624           0     -1924.500244   -515.668518  -16375.00000    117.959648
    4625           0     -1924.500244   -515.668518  -16625.00000    119.775978
    4626           0     -1924.500244   -515.668518  -16875.00000    121.699371
    4627           0     -1924.500244   -515.668518  -17125.00000    123.674957
    4628           0     -1924.500244   -515.668518  -17375.00000    125.531799
    4629           0     -1924.500244   -515.668518  -17625.00000    127.238503
    4630           0     -1924.500244   -515.668518  -17875.00000    128.726791
    4631           0     -1924.500244   -515.668518  -18125.00000    129.989166
    4632           0     -1924.500244   -515.668518  -18375.00000    131.004288
    4633           0     -1924.500244   -515.668518  -18625.00000    131.776596
    4634           0     -1924.500244   -515.668518  -18875.00000    132.301956
    4635           0     -1924.500244   -515.668518  -19125.00000    132.586731
    4636           0     -1924.500244   -515.668518  -19375.00000    132.628662
    4637           0     -1924.500244   -515.668518  -19625.00000    132.429901
    4638           0     -1924.500244   -515.668518  -19875.00000    131.982346
    4639           0     -1924.500244   -515.668518  -20125.00000    131.280304
    4640           0     -1924.500244   -515.668518  -20375.00000    130.305664
    4641           0     -1924.500244   -515.668518  -20625.00000    129.043274
    4642           0     -1924.500244   -515.668518  -20875.00000    127.462479
    4643           0     -1924.500244   -515.668518  -21125.00000    125.538689
    4644           0     -1924.500244   -515.668518  -21375.00000    123.227371
    4645           0     -1924.500244   -515.668518  -21625.00000    120.496346
    4646           0     -1924.500244   -515.668518  -21875.00000    117.287369
    4647           0     -1924.500244   -515.668518  -22125.00000    113.566330
    4648           0     -1924.500244   -515.668518  -22375.00000    109.264503
    4649           0     -1924.500244   -515.668518  -22625.00000    104.357895
    4650           0     -1924.500244   -515.668579  -22875.00000     98.778152
    4651           0     -1924.500244   -515.668579  -23125.00000     92.535965
    4652           0     -1924.500244   -515.668579  -23375.00000     85.593834
    4653           0     -1924.500244   -515.668579  -23625.00000     78.047318
    4654           0     -1924.500244   -515.668579  -23875.00000     69.983589
    4655           0     -1924.500244   -515.668579  -24125.00000     61.699806
    4656           0     -1924.500244   -515.668579  -24375.00000     53.741096
    4657           0     -1924.500244   -515.668579  -24625.00000     46.877445
    4658           0     -1924.500244   -515.668579  -24875.00000     42.876884
    4659           0     -1924.500244   -515.668579  -25125.00000     42.634632
    4660           0     -1924.500244   -515.668579  -25375.00000     45.487381
    4661           0     -1924.500244   -515.668579  -25625.00000     57.213242
    4662           0     -1924.500244   -515.668579  -25875.00000     52.224319
    4663           0     -1894.423340   -627.916504  -13625.00000    187.416367
    4664           0     -1894.423340   -627.916504  -13875.00000    179.063248
    4665           0     -1894.423340   -627.916504  -14125.00000    162.657822
    4666           0     -1894.423340   -627.916504  -14375.00000    151.409256
    4667           0     -1894.423340   -627.916504  -14625.00000    137.574463
    4668           0     -1894.423340   -627.916504  -14875.00000    127.246849
    4669           0     -1894.423340   -627.916504  -15125.00000    116.550766
    4670           0     -1894.423340   -627.916504  -15375.00000    109.006691
    4671           0     -1894.423340   -627.916504  -15625.00000    102.604630
    4672           0     -1894.423340   -627.916504  -15875.00000     99.123894
    4673           0     -1894.423340   -627.916504  -16125.00000     97.174347
    4674           0     -1894.423340   -627.916504  -16375.00000     97.367012
    4675           0     -1894.423340   -627.916504  -16625.00000     98.646896
    4676           0     -1894.423340   -627.916504  -16875.00000    101.068054
    4677           0     -1894.423340   -627.916504  -17125.00000    103.939598
    4678           0     -1894.423340   -627.916504  -17375.00000    107.192009
    4679           0     -1894.423340   -627.916504  -17625.00000    110.440392
    4680           0     -1894.423340   -627.916504  -17875.00000    113.631737
    4681           0     -1894.423340   -627.916504  -18125.00000    116.570038
    4682           0     -1894.423340   -627.916504  -18375.00000    119.231483
    4683           0     -1894.423340   -627.916504  -18625.00000    121.519165
    4684           0     -1894.423340   -627.916504  -18875.00000    123.426079
    4685           0     -1894.423340   -627.916504  -19125.00000    124.902313
    4686           0     -1894.423340   -627.916504  -19375.00000    125.946564
    4687           0     -1894.423340   -627.916504  -19625.00000    126.528206
    4688           0     -1894.423340   -627.916504  -19875.00000    126.644814
    4689           0     -1894.423340   -627.916504  -20125.00000    126.270699
    4690           0     -1894.423340   -627.916504  -20375.00000    125.398895
    4691           0     -1894.423340   -627.916504  -20625.00000    124.001358
    4692           0     -1894.423340   -627.916504  -20875.00000    122.065849
    4693           0     -1894.423340   -627.916504  -21125.00000    119.558762
    4694           0     -1894.423340   -627.916504  -21375.00000    116.464249
    4695           0     -1894.423340   -627.916504  -21625.00000    112.743217
    4696           0     -1894.423340   -627.916504  -21875.00000    108.381172
    4697           0     -1894.423340   -627.916504  -22125.00000    103.337952
    4698           0     -1894.423340   -627.916504  -22375.00000     97.610916
    4699           0     -1894.423340   -627.916504  -22625.00000     91.172630
    4700           0     -1894.423340   -627.916565  -22875.00000     84.054749
    4701           0     -1894.423340   -627.916565  -23125.00000     76.283195
    4702           0     -1894.423340   -627.916565  -23375.00000     67.978256
    4703           0     -1894.423340   -627.916565  -23625.00000     59.350105
    4704           0     -1894.423340   -627.916565  -23875.00000     50.765335
    4705           0     -1894.423340   -627.916565  -24125.00000     43.074776
    4706           0     -1894.423340   -627.916565  -24375.00000     37.276512
    4707           0     -1894.423340   -627.916565  -24625.00000     35.568237
    4708           0     -1894.423340   -627.916565  -24875.00000     37.681259
    4709           0     -1894.423340   -627.916565  -25125.00000     44.755424
    4710           0     -1894.423340   -627.916565  -25375.00000     51.631050
    4711           0     -1894.423340   -627.916565  -25625.00000     63.809719
    4712           0     -1894.423340   -627.916565  -25875.00000     67.756844
    4713           0     -1854.829224   -736.700439  -13625.00000    178.816727
    4714           0     -1854.829224   -736.700439  -13875.00000    191.412048
    4715           0     -1854.829224   -736.700439  -14125.00000    167.167847
    4716           0     -1854.829224   -736.700439  -14375.00000    155.764282
    4717           0     -1854.829224   -736.700439  -14625.00000    141.358765
    4718           0     -1854.829224   -736.700439  -14875.00000    128.711273
    4719           0     -1854.829224   -736.700439  -15125.00000    116.121254
    4720           0     -1854.829224   -736.700439  -15375.00000    105.349747
    4721           0     -1854.829224   -736.700439  -15625.00000     95.889771
    4722           0     -1854.829224   -736.700439  -15875.00000     88.612114
    4723           0     -1854.829224   -736.700439  -16125.00000     83.423096
    4724           0     -1854.829224   -736.700439  -16375.00000     80.454880
    4725           0     -1854.829224   -736.700439  -16625.00000     79.520798
    4726           0     -1854.829224   -736.700439  -16875.00000     80.227638
    4727           0     -1854.829224   -736.700439  -17125.00000     82.235008
    4728           0     -1854.829224   -736.700439  -17375.00000     85.036629
    4729           0     -1854.829224   -736.700439  -17625.00000     88.351357
    4730           0     -1854.829224   -736.700439  -17875.00000     91.814720
    4731           0     -1854.829224   -736.700439  -18125.00000     95.270264
    4732           0     -1854.829224   -736.700439  -18375.00000     98.504677
    4733           0     -1854.829224   -736.700439  -18625.00000    101.445847
    4734           0     -1854.829224   -736.700439  -18875.00000    103.975571
    4735           0     -1854.829224   -736.700439  -19125.00000    106.063797
    4736           0     -1854.829224   -736.700439  -19375.00000    107.643394
    4737           0     -1854.829224   -736.700439  -19625.00000    108.701813
    4738           0     -1854.829224   -736.700439  -19875.00000    109.197350
    4739           0     -1854.829224   -736.700439  -20125.00000    109.122772
    4740           0     -1854.829224   -736.700439  -20375.00000    108.448364
    4741           0     -1854.829224   -736.700439  -20625.00000    107.166878
    4742           0     -1854.829224   -736.700439  -20875.00000    105.254555
    4743           0     -1854.829224   -736.700439  -21125.00000    102.702827
    4744           0     -1854.829224   -736.700439  -21375.00000     99.492981
    4745           0     -1854.829224   -736.700439  -21625.00000     95.617012
    4746           0     -1854.829224   -736.700439  -21875.00000     91.065285
    4747           0     -1854.829224   -736.700439  -22125.00000     85.836327
    4748           0     -1854.829224   -736.700439  -22375.00000     79.941032
    4749           0     -1854.829224   -736.700439  -22625.00000     73.400322
    4750           0     -1854.829224   -736.700439  -22875.00000     66.273842
    4751           0     -1854.829224   -736.700439  -23125.00000     58.654129
    4752           0     -1854.829224   -736.700439  -23375.00000     50.731319
    4753           0     -1854.829224   -736.700439  -23625.00000     42.862316
    4754           0     -1854.829224   -736.700439  -23875.00000     35.657280
    4755           0     -1854.829224   -736.700439  -24125.00000     30.477028
    4756           0     -1854.829224   -736.700439  -24375.00000     28.616985
    4757           0     -1854.829224   -736.700439  -24625.00000     31.732368
    4758           0     -1854.829224   -736.700439  -24875.00000     37.454666
    4759           0     -1854.829224   -736.700439  -25125.00000     46.422340
    4760           0     -1854.829224   -736.700439  -25375.00000     53.903633
    4761           0     -1854.829224   -736.700439  -25625.00000     66.790009
    4762           0     -1854.829224   -736.700439  -25875.00000     68.236755
    4763           0     -1805.717773   -842.020264  -13625.00000    167.999115
    4764           0     -1805.717773   -842.020264  -13875.00000    187.567337
    4765           0     -1805.717773   -842.020264  -14125.00000    162.322449
    4766           0     -1805.717773   -842.020264  -14375.00000    150.965378
    4767           0     -1805.717773   -842.020264  -14625.00000    139.699951
    4768           0     -1805.717773   -842.020264  -14875.00000    126.631462
    4769           0     -1805.717773   -842.020264  -15125.00000    115.716286
    4770           0     -1805.717773   -842.020264  -15375.00000    104.266151
    4771           0     -1805.717773   -842.020264  -15625.00000     94.482300
    4772           0     -1805.717773   -842.020264  -15875.00000     85.152992
    4773           0     -1805.717773   -842.020264  -16125.00000     77.516434
    4774           0     -1805.717773   -842.020264  -16375.00000     71.036003
    4775           0     -1805.717773   -842.020264  -16625.00000     66.370064
    4776           0     -1805.717773   -842.020264  -16875.00000     63.231869
    4777           0     -1805.717773   -842.020264  -17125.00000     61.767185
    4778           0     -1805.717773   -842.020264  -17375.00000     61.644409
    4779           0     -1805.717773   -842.020264  -17625.00000     62.634888
    4780           0     -1805.717773   -842.020264  -17875.00000     64.384697
    4781           0     -1805.717773   -842.020264  -18125.00000     66.588867
    4782           0     -1805.717773   -842.020264  -18375.00000     68.997421
    4783           0     -1805.717773   -842.020264  -18625.00000     71.387566
    4784           0     -1805.717773   -842.020264  -18875.00000     73.620773
    4785           0     -1805.717773   -842.020264  -19125.00000     75.561859
    4786           0     -1805.717773   -842.020264  -19375.00000     77.140900
    4787           0     -1805.717773   -842.020264  -19625.00000     78.280197
    4788           0     -1805.717773   -842.020264  -19875.00000     78.944633
    4789           0     -1805.717773   -842.020264  -20125.00000     79.091049
    4790           0     -1805.717773   -842.020264  -20375.00000     78.700836
    4791           0     -1805.717773   -842.020264  -20625.00000     77.753128
    4792           0     -1805.717773   -842.020264  -20875.00000     76.237274
    4793           0     -1805.717773   -842.020264  -21125.00000     74.150688
    4794           0     -1805.717773   -842.020264  -21375.00000     71.487907
    4795           0     -1805.717773   -842.020264  -21625.00000     68.267349
    4796           0     -1805.717773   -842.020264  -21875.00000     64.490738
    4797           0     -1805.717773   -842.020264  -22125.00000     60.208271
    4798           0     -1805.717773   -842.020264  -22375.00000     55.438778
    4799           0     -1805.717773   -842.020264  -22625.00000     50.290462
    4800           0     -1805.717773   -842.020264  -22875.00000     44.833210
    4801           0     -1805.717773   -842.020264  -23125.00000     39.302349
    4802           0     -1805.717773   -842.020264  -23375.00000     33.942432
    4803           0     -1805.717773   -842.020264  -23625.00000     29.309679
    4804           0     -1805.717773   -842.020264  -23875.00000     26.153570
    4805           0     -1805.717773   -842.020264  -24125.00000     25.320030
    4806           0     -1805.717773   -842.020264  -24375.00000     27.400349
    4807           0     -1805.717773   -842.020264  -24625.00000     31.527611
    4808           0     -1805.717773   -842.020264  -24875.00000     37.622257
    4809           0     -1805.717773   -842.020264  -25125.00000     44.020832
    4810           0     -1805.717773   -842.020264  -25375.00000     50.402027
    4811           0     -1805.717773   -842.020264  -25625.00000     63.458820
    4812           0     -1805.717773   -842.020264  -25875.00000     56.940468
    4813           0     -1756.606201   -947.340210  -13625.00000    175.098175
    4814           0     -1756.606201   -947.340210  -13875.00000    174.055893
    4815           0     -1756.606201   -947.340210  -14125.00000    160.707703
    4816           0     -1756.606201   -947.340210  -14375.00000    150.536850
    4817           0     -1756.606201   -947.340210  -14625.00000    139.196625
    4818           0     -1756.606201   -947.340210  -14875.00000    129.182724
    4819           0     -1756.606201   -947.340210  -15125.00000    118.378120
    4820           0     -1756.606201   -947.340210  -15375.00000    108.517723
    4821           0     -1756.606201   -947.340210  -15625.00000     98.309189
    4822           0     -1756.606201   -947.340210  -15875.00000     88.903908
    4823           0     -1756.606201   -947.340088  -16125.00000     79.563370
    4824           0     -1756.606201   -947.340088  -16375.00000     71.102364
    4825           0     -1756.606201   -947.340088  -16625.00000     63.134598
    4826           0     -1756.606201   -947.340088  -16875.00000     56.261696
    4827           0     -1756.606201   -947.340088  -17125.00000     50.330345
    4828           0     -1756.606201   -947.340088  -17375.00000     45.767654
    4829           0     -1756.606201   -947.340088  -17625.00000     42.495239
    4830           0     -1756.606445   -947.340088  -17875.00000     40.658318
    4831           0     -1756.606445   -947.340088  -18125.00000     40.026501
    4832           0     -1756.606445   -947.340088  -18375.00000     40.402622
    4833           0     -1756.606445   -947.340088  -18625.00000     41.435734
    4834           0     -1756.606445   -947.340088  -18875.00000     42.838303
    4835           0     -1756.606445   -947.340088  -19125.00000     44.346134
    4836           0     -1756.606445   -947.340088  -19375.00000     45.762951
    4837           0     -1756.606445   -947.340088  -19625.00000     46.945866
    4838           0     -1756.606445   -947.340088  -19875.00000     47.790749
    4839           0     -1756.606445   -947.340088  -20125.00000     48.229263
    4840           0     -1756.606445   -947.340088  -20375.00000     48.216400
    4841           0     -1756.606445   -947.340088  -20625.00000     47.722656
    4842           0     -1756.606445   -947.340088  -20875.00000     46.743294
    4843           0     -1756.606445   -947.340088  -21125.00000     45.270912
    4844           0     -1756.606445   -947.340088  -21375.00000     43.337124
    4845           0     -1756.606445   -947.340088  -21625.00000     40.953049
    4846           0     -1756.606445   -947.340088  -21875.00000     38.196770
    4847           0     -1756.606445   -947.340088  -22125.00000     35.108513
    4848           0     -1756.606445   -947.340088  -22375.00000     31.845722
    4849           0     -1756.606445   -947.340088  -22625.00000     28.519079
    4850           0     -1756.606445   -947.340088  -22875.00000     25.447418
    4851           0     -1756.606445   -947.340088  -23125.00000     22.907415
    4852           0     -1756.606445   -947.340088  -23375.00000     21.452301
    4853           0     -1756.606445   -947.340088  -23625.00000     21.382402
    4854           0     -1756.606445   -947.340088  -23875.00000     22.938038
    4855           0     -1756.606445   -947.340088  -24125.00000     25.755779
    4856           0     -1756.606445   -947.340088  -24375.00000     29.591446
    4857           0     -1756.606445   -947.340088  -24625.00000     33.912247
    4858           0     -1756.606445   -947.340088  -24875.00000     38.808670
    4859           0     -1756.606445   -947.340088  -25125.00000     43.741638
    4860           0     -1756.606445   -947.340088  -25375.00000     48.825611
    4861           0     -1756.606445   -947.340088  -25625.00000     57.207569
    4862           0     -1756.606445   -947.340088  -25875.00000     53.876781
    4863           0     -1698.723511  -1047.595947  -13625.00000    157.288040
    4864           0     -1698.723511  -1047.595947  -13875.00000    167.929016
    4865           0     -1698.723511  -1047.595947  -14125.00000    152.040283
    4866           0     -1698.723511  -1047.595947  -14375.00000    144.993988
    4867           0     -1698.723511  -1047.595947  -14625.00000    135.307404
    4868           0     -1698.723511  -1047.595947  -14875.00000    127.016243
    4869           0     -1698.723511  -1047.595947  -15125.00000    117.983177
    4870           0     -1698.723511  -1047.595947  -15375.00000    109.582268
    4871           0     -1698.723511  -1047.595947  -15625.00000    100.880280
    4872           0     -1698.723511  -1047.595947  -15875.00000     92.526337
    4873           0     -1698.723511  -1047.595947  -16125.00000     84.198944
    4874           0     -1698.723511  -1047.595947  -16375.00000     76.193466
    4875           0     -1698.723511  -1047.595947  -16625.00000     68.474777
    4876           0     -1698.723511  -1047.595947  -16875.00000     61.185989
    4877           0     -1698.723511  -1047.595947  -17125.00000     54.417320
    4878           0     -1698.723511  -1047.595947  -17375.00000     48.256317
    4879           0     -1698.723511  -1047.595947  -17625.00000     42.846214
    4880           0     -1698.723511  -1047.595947  -17875.00000     38.256382
    4881           0     -1698.723511  -1047.595947  -18125.00000     34.622402
    4882           0     -1698.723511  -1047.595947  -18375.00000     31.955431
    4883           0     -1698.723511  -1047.595947  -18625.00000     30.270166
    4884           0     -1698.723511  -1047.595947  -18875.00000     29.424393
    4885           0     -1698.723511  -1047.595947  -19125.00000     29.256470
    4886           0     -1698.723511  -1047.595947  -19375.00000     29.525837
    4887           0     -1698.723511  -1047.595947  -19625.00000     30.036209
    4888           0     -1698.723511  -1047.595947  -19875.00000     30.599331
    4889           0     -1698.723511  -1047.595947  -20125.00000     31.093889
    4890           0     -1698.723511  -1047.595947  -20375.00000     31.419844
    4891           0     -1698.723511  -1047.595947  -20625.00000     31.532419
    4892           0     -1698.723511  -1047.595947  -20875.00000     31.394909
    4893           0     -1698.723511  -1047.595947  -21125.00000     31.019691
    4894           0     -1698.723511  -1047.595947  -21375.00000     30.412897
    4895           0     -1698.723511  -1047.595947  -21625.00000     29.635883
    4896           0     -1698.723511  -1047.595947  -21875.00000     28.730000
    4897           0     -1698.723511  -1047.595947  -22125.00000     27.806276
    4898           0     -1698.723511  -1047.595947  -22375.00000     26.936693
    4899           0     -1698.723511  -1047.595947  -22625.00000     26.275526
    4900           0     -1698.723511  -1047.595947  -22875.00000     25.898483
    4901           0     -1698.723511  -1047.595947  -23125.00000     25.961164
    4902           0     -1698.723511  -1047.595947  -23375.00000     26.468782
    4903           0     -1698.723511  -1047.595947  -23625.00000     27.522156
    4904           0     -1698.723511  -1047.595947  -23875.00000     28.987854
    4905           0     -1698.723511  -1047.595947  -24125.00000     30.963572
    4906           0     -1698.723511  -1047.595947  -24375.00000     33.154869
    4907           0     -1698.723511  -1047.595947  -24625.00000     35.868080
    4908           0     -1698.723511  -1047.595947  -24875.00000     38.491421
    4909           0     -1698.723511  -1047.595947  -25125.00000     41.953766
    4910           0     -1698.723511  -1047.595947  -25375.00000     44.876862
    4911           0     -1698.723511  -1047.595947  -25625.00000     49.221478
    4912           0     -1698.723511  -1047.595947  -25875.00000     50.521053
    4913           0     -1632.069580  -1142.787720  -13625.00000    138.614731
    4914           0     -1632.069580  -1142.787720  -13875.00000    157.184540
    4915           0     -1632.069580  -1142.787720  -14125.00000    139.494415
    4916           0     -1632.069580  -1142.787720  -14375.00000    133.386230
    4917           0     -1632.069580  -1142.787720  -14625.00000    127.120926
    4918           0     -1632.069580  -1142.787720  -14875.00000    119.346466
    4919           0     -1632.069580  -1142.787720  -15125.00000    112.829468
    4920           0     -1632.069580  -1142.787720  -15375.00000    105.646545
    4921           0     -1632.069580  -1142.787720  -15625.00000     99.037567
    4922           0     -1632.069580  -1142.787720  -15875.00000     92.181641
    4923           0     -1632.069580  -1142.787720  -16125.00000     85.711647
    4924           0     -1632.069580  -1142.787720  -16375.00000     79.227180
    4925           0     -1632.069580  -1142.787720  -16625.00000     73.083847
    4926           0     -1632.069580  -1142.787720  -16875.00000     67.105789
    4927           0     -1632.069580  -1142.787720  -17125.00000     61.497204
    4928           0     -1632.069580  -1142.787720  -17375.00000     56.203560
    4929           0     -1632.069580  -1142.787720  -17625.00000     51.346874
    4930           0     -1632.069580  -1142.787720  -17875.00000     46.933067
    4931           0     -1632.069580  -1142.787720  -18125.00000     43.034657
    4932           0     -1632.069580  -1142.787720  -18375.00000     39.675556
    4933           0     -1632.069580  -1142.787720  -18625.00000     36.883675
    4934           0     -1632.069580  -1142.787720  -18875.00000     34.662045
    4935           0     -1632.069580  -1142.787720  -19125.00000     32.982552
    4936           0     -1632.069580  -1142.787720  -19375.00000     31.801220
    4937           0     -1632.069580  -1142.787842  -19625.00000     31.037161
    4938           0     -1632.069580  -1142.787842  -19875.00000     30.612013
    4939           0     -1632.069580  -1142.787842  -20125.00000     30.427721
    4940           0     -1632.069580  -1142.787842  -20375.00000     30.410728
    4941           0     -1632.069580  -1142.787842  -20625.00000     30.482147
    4942           0     -1632.069580  -1142.787842  -20875.00000     30.598797
    4943           0     -1632.069580  -1142.787842  -21125.00000     30.712368
    4944           0     -1632.069580  -1142.787842  -21375.00000     30.813362
    4945           0     -1632.069580  -1142.787842  -21625.00000     30.878151
    4946           0     -1632.069580  -1142.787842  -21875.00000     30.924467
    4947           0     -1632.069580  -1142.787842  -22125.00000     30.942492
    4948           0     -1632.069580  -1142.787842  -22375.00000     30.969170
    4949           0     -1632.069580  -1142.787842  -22625.00000     30.998304
    4950           0     -1632.069580  -1142.787842  -22875.00000     31.078764
    4951           0     -1632.069580  -1142.787842  -23125.00000     31.202024
    4952           0     -1632.069580  -1142.787842  -23375.00000     31.422268
    4953           0     -1632.069580  -1142.787842  -23625.00000     31.732550
    4954           0     -1632.069580  -1142.787842  -23875.00000     32.182106
    4955           0     -1632.069580  -1142.787842  -24125.00000     32.786026
    4956           0     -1632.069580  -1142.787842  -24375.00000     33.561253
    4957           0     -1632.069580  -1142.787842  -24625.00000     34.573490
    4958           0     -1632.069580  -1142.787842  -24875.00000     35.771595
    4959           0     -1632.069580  -1142.787842  -25125.00000     37.371273
    4960           0     -1632.069580  -1142.787842  -25375.00000     38.222324
    4961           0     -1632.069580  -1142.787842  -25625.00000     43.381248
    4962           0     -1632.069580  -1142.787720  -25875.00000     38.958534
    4963           0     -1565.415527  -1237.979370  -13625.00000    133.967758
    4964           0     -1565.415527  -1237.979370  -13875.00000    137.203003
    4965           0     -1565.415527  -1237.979370  -14125.00000    130.353806
    4966           0     -1565.415527  -1237.979370  -14375.00000    124.819069
    4967           0     -1565.415527  -1237.979370  -14625.00000    119.700798
    4968           0     -1565.415527  -1237.979370  -14875.00000    114.693390
    4969           0     -1565.415527  -1237.979370  -15125.00000    109.586334
    4970           0     -1565.415527  -1237.979370  -15375.00000    104.816246
    4971           0     -1565.415527  -1237.979370  -15625.00000     99.974762
    4972           0     -1565.415527  -1237.979370  -15875.00000     95.424988
    4973           0     -1565.415527  -1237.979370  -16125.00000     90.880356
    4974           0     -1565.415527  -1237.979370  -16375.00000     86.597359
    4975           0     -1565.415527  -1237.979370  -16625.00000     82.395195
    4976           0     -1565.415527  -1237.979370  -16875.00000     78.450447
    4977           0     -1565.415527  -1237.979370  -17125.00000     74.662231
    4978           0     -1565.415527  -1237.979370  -17375.00000     71.147491
    4979           0     -1565.415527  -1237.979370  -17625.00000     67.856552
    4980           0     -1565.415527  -1237.979370  -17875.00000     64.861389
    4981           0     -1565.415527  -1237.979370  -18125.00000     62.137691
    4982           0     -1565.415527  -1237.979370  -18375.00000     59.721184
    4983           0     -1565.415527  -1237.979370  -18625.00000     57.593319
    4984           0     -1565.415527  -1237.979370  -18875.00000     55.759048
    4985           0     -1565.415527  -1237.979370  -19125.00000     54.194138
    4986           0     -1565.415527  -1237.979370  -19375.00000     52.878902
    4987           0     -1565.415527  -1237.979370  -19625.00000     51.780861
    4988           0     -1565.415527  -1237.979492  -19875.00000     50.864300
    4989           0     -1565.415527  -1237.979492  -20125.00000     50.092705
    4990           0     -1565.415527  -1237.979492  -20375.00000     49.423820
    4991           0     -1565.415527  -1237.979492  -20625.00000     48.823765
    4992           0     -1565.415527  -1237.979492  -20875.00000     48.251190
    4993           0     -1565.415527  -1237.979492  -21125.00000     47.680592
    4994           0     -1565.415527  -1237.979492  -21375.00000     47.075668
    4995           0     -1565.415527  -1237.979492  -21625.00000     46.423397
    4996           0     -1565.415527  -1237.979492  -21875.00000     45.694157
    4997           0     -1565.415527  -1237.979492  -22125.00000     44.891087
    4998           0     -1565.415527  -1237.979492  -22375.00000     43.991970
    4999           0     -1565.415527  -1237.979492  -22625.00000     43.020153
    5000           0     -1565.415527  -1237.979492  -22875.00000     41.962040
    5001           0     -1565.415527  -1237.979492  -23125.00000     40.863674
    5002           0     -1565.415527  -1237.979492  -23375.00000     39.723297
    5003           0     -1565.415527  -1237.979492  -23625.00000     38.603050
    5004           0     -1565.415527  -1237.979492  -23875.00000     37.524181
    5005           0     -1565.415527  -1237.979492  -24125.00000     36.532867
    5006           0     -1565.415527  -1237.979492  -24375.00000     35.712872
    5007           0     -1565.415527  -1237.979492  -24625.00000     34.981949
    5008           0     -1565.415527  -1237.979492  -24875.00000     34.689060
    5009           0     -1565.415527  -1237.979492  -25125.00000     34.161102
    5010           0     -1565.415527  -1237.979492  -25375.00000     34.236660
    5011           0     -1565.415527  -1237.979492  -25625.00000     36.263950
    5012           0     -1565.415527  -1237.979370  -25875.00000     30.696609
    5013           0     -1491.003052  -1326.660889  -13625.00000    118.291367
    5014           0     -1491.003052  -1326.660889  -13875.00000    127.759987
    5015           0     -1491.003052  -1326.660889  -14125.00000    119.737717
    5016           0     -1491.003052  -1326.660889  -14375.00000    116.753662
    5017           0     -1491.003052  -1326.660889  -14625.00000    112.628342
    5018           0     -1491.003052  -1326.660889  -14875.00000    109.154442
    5019           0     -1491.003052  -1326.660889  -15125.00000    105.419800
    5020           0     -1491.003052  -1326.660889  -15375.00000    102.060234
    5021           0     -1491.003052  -1326.660889  -15625.00000     98.668655
    5022           0     -1491.003052  -1326.660889  -15875.00000     95.502907
    5023           0     -1491.003052  -1326.660889  -16125.00000     92.420685
    5024           0     -1491.003052  -1326.660889  -16375.00000     89.501953
    5025           0     -1491.003052  -1326.660889  -16625.00000     86.717079
    5026           0     -1491.003052  -1326.660889  -16875.00000     84.079330
    5027           0     -1491.003052  -1326.660889  -17125.00000     81.599281
    5028           0     -1491.003052  -1326.660889  -17375.00000     79.267601
    5029           0     -1491.003052  -1326.660889  -17625.00000     77.103050
    5030           0     -1491.003052  -1326.660889  -17875.00000     75.089584
    5031           0     -1491.003052  -1326.660889  -18125.00000     73.240158
    5032           0     -1491.003052  -1326.660889  -18375.00000     71.536240
    5033           0     -1491.003052  -1326.660889  -18625.00000     69.979759
    5034           0     -1491.003052  -1326.660889  -18875.00000     68.549835
    5035           0     -1491.003052  -1326.660889  -19125.00000     67.236740
    5036           0     -1491.003052  -1326.660889  -19375.00000     66.017174
    5037           0     -1491.003052  -1326.660889  -19625.00000     64.871712
    5038           0     -1491.003052  -1326.660889  -19875.00000     63.775642
    5039           0     -1491.003052  -1326.660889  -20125.00000     62.703056
    5040           0     -1491.003052  -1326.660889  -20375.00000     61.630039
    5041           0     -1491.003052  -1326.660889  -20625.00000     60.527657
    5042           0     -1491.003052  -1326.660889  -20875.00000     59.375839
    5043           0     -1491.003052  -1326.660889  -21125.00000     58.145859
    5044           0     -1491.003052  -1326.660889  -21375.00000     56.825382
    5045           0     -1491.003052  -1326.660889  -21625.00000     55.388836
    5046           0     -1491.003052  -1326.660889  -21875.00000     53.836952
    5047           0     -1491.003052  -1326.660889  -22125.00000     52.149872
    5048           0     -1491.003052  -1326.660889  -22375.00000     50.348843
    5049           0     -1491.003052  -1326.660889  -22625.00000     48.420952
    5050           0     -1491.003052  -1326.660889  -22875.00000     46.417561
    5051           0     -1491.003052  -1326.660889  -23125.00000     44.328716
    5052           0     -1491.003052  -1326.660889  -23375.00000     42.246273
    5053           0     -1491.003052  -1326.660889  -23625.00000     40.145748
    5054           0     -1491.003052  -1326.660889  -23875.00000     38.169865
    5055           0     -1491.003052  -1326.660889  -24125.00000     36.237381
    5056           0     -1491.003052  -1326.660889  -24375.00000     34.559578
    5057           0     -1491.003052  -1326.660889  -24625.00000     32.929352
    5058           0     -1491.003052  -1326.660889  -24875.00000     31.674515
    5059           0     -1491.003052  -1326.660889  -25125.00000     30.333807
    5060           0     -1491.003052  -1326.661011  -25375.00000     29.639914
    5061           0     -1491.002930  -1326.661011  -25625.00000     28.449852
    5062           0     -1491.002930  -1326.661011  -25875.00000     27.287182
    5063           0     -1408.831787  -1408.832275  -13625.00000    105.900284
    5064           0     -1408.831787  -1408.832275  -13875.00000    121.356735
    5065           0     -1408.831787  -1408.832275  -14125.00000    110.477875
    5066           0     -1408.831787  -1408.832275  -14375.00000    108.508606
    5067           0     -1408.831787  -1408.832275  -14625.00000    106.029480
    5068           0     -1408.831787  -1408.832275  -14875.00000    102.798592
    5069           0     -1408.831787  -1408.832275  -15125.00000    100.259178
    5070           0     -1408.831787  -1408.832275  -15375.00000     97.482338
    5071           0     -1408.831787  -1408.832275  -15625.00000     94.999146
    5072           0     -1408.831787  -1408.832275  -15875.00000     92.487213
    5073           0     -1408.831787  -1408.832275  -16125.00000     90.178108
    5074           0     -1408.831787  -1408.832275  -16375.00000     87.916870
    5075           0     -1408.831787  -1408.832275  -16625.00000     85.817032
    5076           0     -1408.831787  -1408.832275  -16875.00000     83.805344
    5077           0     -1408.831787  -1408.832275  -17125.00000     81.929123
    5078           0     -1408.831787  -1408.832275  -17375.00000     80.154053
    5079           0     -1408.831787  -1408.832275  -17625.00000     78.491882
    5080           0     -1408.831787  -1408.832275  -17875.00000     76.923744
    5081           0     -1408.831787  -1408.832275  -18125.00000     75.443016
    5082           0     -1408.831787  -1408.832275  -18375.00000     74.035110
    5083           0     -1408.831787  -1408.832275  -18625.00000     72.684525
    5084           0     -1408.831787  -1408.832275  -18875.00000     71.376289
    5085           0     -1408.831787  -1408.832031  -19125.00000     70.091202
    5086           0     -1408.831787  -1408.832031  -19375.00000     68.812668
    5087           0     -1408.831787  -1408.832031  -19625.00000     67.520920
    5088           0     -1408.831787  -1408.832031  -19875.00000     66.198090
    5089           0     -1408.831787  -1408.832031  -20125.00000     64.826118
    5090           0     -1408.831787  -1408.832031  -20375.00000     63.387184
    5091           0     -1408.831787  -1408.832031  -20625.00000     61.867065
    5092           0     -1408.831787  -1408.832031  -20875.00000     60.249832
    5093           0     -1408.831787  -1408.832031  -21125.00000     58.527573
    5094           0     -1408.831787  -1408.832031  -21375.00000     56.688381
    5095           0     -1408.831787  -1408.832031  -21625.00000     54.733879
    5096           0     -1408.831787  -1408.832031  -21875.00000     52.658321
    5097           0     -1408.831787  -1408.832031  -22125.00000     50.476929
    5098           0     -1408.831787  -1408.832031  -22375.00000     48.191425
    5099           0     -1408.831787  -1408.832031  -22625.00000     45.835812
    5100           0     -1408.831787  -1408.832031  -22875.00000     43.417370
    5101           0     -1408.831787  -1408.832031  -23125.00000     40.995434
    5102           0     -1408.831787  -1408.832031  -23375.00000     38.572315
    5103           0     -1408.831787  -1408.832031  -23625.00000     36.242352
    5104           0     -1408.831787  -1408.832031  -23875.00000     33.972980
    5105           0     -1408.831787  -1408.832031  -24125.00000     31.914690
    5106           0     -1408.831787  -1408.832031  -24375.00000     29.935175
    5107           0     -1408.831787  -1408.832031  -24625.00000     28.297274
    5108           0     -1408.831787  -1408.832031  -24875.00000     26.643534
    5109           0     -1408.831787  -1408.832031  -25125.00000     25.597069
    5110           0     -1408.831787  -1408.832031  -25375.00000     23.950001
    5111           0     -1408.831787  -1408.832153  -25625.00000     23.970524
    5112           0     -1408.831787  -1408.832153  -25875.00000     22.570204
    5113           0     -1326.660645  -1491.003296  -13625.00000    103.232132
    5114           0     -1326.660645  -1491.003296  -13875.00000    107.909836
    5115           0     -1326.660645  -1491.003296  -14125.00000    104.991341
    5116           0     -1326.660645  -1491.003296  -14375.00000    102.563797
    5117           0     -1326.660645  -1491.003296  -14625.00000    100.845711
    5118           0     -1326.660645  -1491.003296  -14875.00000     98.996422
    5119           0     -1326.660645  -1491.003296  -15125.00000     97.249779
    5120           0     -1326.660645  -1491.003296  -15375.00000     95.650467
    5121           0     -1326.660645  -1491.003296  -15625.00000     94.111092
    5122           0     -1326.660645  -1491.003296  -15875.00000     92.724312
    5123           0     -1326.660645  -1491.003296  -16125.00000     91.416748
    5124           0     -1326.660645  -1491.003296  -16375.00000     90.252037
    5125           0     -1326.660645  -1491.003296  -16625.00000     89.171539
    5126           0     -1326.660645  -1491.003296  -16875.00000     88.208328
    5127           0     -1326.660645  -1491.003296  -17125.00000     87.315598
    5128           0     -1326.660645  -1491.003296  -17375.00000     86.500488
    5129           0     -1326.660645  -1491.003296  -17625.00000     85.724319
    5130           0     -1326.660645  -1491.003296  -17875.00000     84.976875
    5131           0     -1326.660645  -1491.003296  -18125.00000     84.225075
    5132           0     -1326.660645  -1491.003296  -18375.00000     83.449692
    5133           0     -1326.660645  -1491.003296  -18625.00000     82.622261
    5134           0     -1326.660645  -1491.003296  -18875.00000     81.720848
    5135           0     -1326.660645  -1491.003296  -19125.00000     80.721603
    5136           0     -1326.660645  -1491.003296  -19375.00000     79.603851
    5137           0     -1326.660645  -1491.003296  -19625.00000     78.348755
    5138           0     -1326.660645  -1491.003296  -19875.00000     76.939392
    5139           0     -1326.660645  -1491.003296  -20125.00000     75.362602
    5140           0     -1326.660645  -1491.003296  -20375.00000     73.606934
    5141           0     -1326.660645  -1491.003296  -20625.00000     71.666122
    5142           0     -1326.660645  -1491.003296  -20875.00000     69.535606
    5143           0     -1326.660645  -1491.003296  -21125.00000     67.217842
    5144           0     -1326.660645  -1491.003296  -21375.00000     64.716553
    5145           0     -1326.660645  -1491.003296  -21625.00000     62.045124
    5146           0     -1326.660645  -1491.003296  -21875.00000     59.216507
    5147           0     -1326.660645  -1491.003296  -22125.00000     56.256950
    5148           0     -1326.660645  -1491.003296  -22375.00000     53.188202
    5149           0     -1326.660645  -1491.003296  -22625.00000     50.050011
    5150           0     -1326.660645  -1491.003296  -22875.00000     46.869835
    5151           0     -1326.660645  -1491.003296  -23125.00000     43.699230
    5152           0     -1326.660645  -1491.003296  -23375.00000     40.564781
    5153           0     -1326.660645  -1491.003296  -23625.00000     37.526337
    5154           0     -1326.660645  -1491.003296  -23875.00000     34.599194
    5155           0     -1326.660645  -1491.003296  -24125.00000     31.852303
    5156           0     -1326.660645  -1491.003296  -24375.00000     29.272543
    5157           0     -1326.660645  -1491.003296  -24625.00000     26.951653
    5158           0     -1326.660645  -1491.003296  -24875.00000     24.849499
    5159           0     -1326.660645  -1491.003296  -25125.00000     23.057716
    5160           0     -1326.660645  -1491.003296  -25375.00000     21.432964
    5161           0     -1326.660645  -1491.003296  -25625.00000     20.837486
    5162           0     -1326.660645  -1491.003296  -25875.00000     19.493240
    5163           0     -1237.979126  -1565.416016  -13625.00000     95.245781
    5164           0     -1237.979126  -1565.416016  -13875.00000    104.504974
    5165           0     -1237.979126  -1565.416016  -14125.00000    100.087845
    5166           0     -1237.979126  -1565.416016  -14375.00000     98.915863
    5167           0     -1237.979126  -1565.416016  -14625.00000     97.538589
    5168           0     -1237.979126  -1565.416016  -14875.00000     96.251358
    5169           0     -1237.979126  -1565.416016  -15125.00000     94.999138
    5170           0     -1237.979126  -1565.416016  -15375.00000     93.883163
    5171           0     -1237.979126  -1565.416016  -15625.00000     92.824768
    5172           0     -1237.979126  -1565.416016  -15875.00000     91.871155
    5173           0     -1237.979126  -1565.416016  -16125.00000     91.004074
    5174           0     -1237.979126  -1565.416016  -16375.00000     90.220795
    5175           0     -1237.979126  -1565.416016  -16625.00000     89.519653
    5176           0     -1237.979126  -1565.416016  -16875.00000     88.876953
    5177           0     -1237.979126  -1565.416016  -17125.00000     88.289047
    5178           0     -1237.979126  -1565.416016  -17375.00000     87.723312
    5179           0     -1237.979126  -1565.416016  -17625.00000     87.169464
    5180           0     -1237.979126  -1565.416016  -17875.00000     86.592331
    5181           0     -1237.979126  -1565.416016  -18125.00000     85.975739
    5182           0     -1237.979126  -1565.416016  -18375.00000     85.286087
    5183           0     -1237.979126  -1565.416016  -18625.00000     84.504013
    5184           0     -1237.979126  -1565.416016  -18875.00000     83.600494
    5185           0     -1237.979126  -1565.416016  -19125.00000     82.556023
    5186           0     -1237.979126  -1565.416016  -19375.00000     81.348244
    5187           0     -1237.979126  -1565.416016  -19625.00000     79.959930
    5188           0     -1237.979126  -1565.416016  -19875.00000     78.377151
    5189           0     -1237.979126  -1565.416016  -20125.00000     76.586563
    5190           0     -1237.979126  -1565.416016  -20375.00000     74.584419
    5191           0     -1237.979126  -1565.416016  -20625.00000     72.362137
    5192           0     -1237.979126  -1565.416016  -20875.00000     69.928513
    5193           0     -1237.979126  -1565.416016  -21125.00000     67.279747
    5194           0     -1237.979126  -1565.416016  -21375.00000     64.440392
    5195           0     -1237.979126  -1565.416016  -21625.00000     61.409958
    5196           0     -1237.979126  -1565.416016  -21875.00000     58.233063
    5197           0     -1237.979126  -1565.416016  -22125.00000     54.908066
    5198           0     -1237.979126  -1565.416016  -22375.00000     51.505253
    5199           0     -1237.979126  -1565.416016  -22625.00000     48.012016
    5200           0     -1237.979126  -1565.416016  -22875.00000     44.532394
    5201           0     -1237.979126  -1565.416016  -23125.00000     41.024109
    5202           0     -1237.979126  -1565.416016  -23375.00000     37.639870
    5203           0     -1237.979126  -1565.416016  -23625.00000     34.276169
    5204           0     -1237.979126  -1565.416016  -23875.00000     31.167963
    5205           0     -1237.979126  -1565.416016  -24125.00000     28.100292
    5206           0     -1237.979126  -1565.416016  -24375.00000     25.466228
    5207           0     -1237.979126  -1565.416016  -24625.00000     22.854364
    5208           0     -1237.979126  -1565.416016  -24875.00000     20.968872
    5209           0     -1237.979126  -1565.416016  -25125.00000     19.014330
    5210           0     -1237.979126  -1565.416016  -25375.00000     18.143202
    5211           0     -1237.979126  -1565.416016  -25625.00000     17.718952
    5212           0     -1237.979126  -1565.416016  -25875.00000     15.731112
    5213           0     -1142.787354  -1632.069946  -13625.00000     91.707176
    5214           0     -1142.787354  -1632.069946  -13875.00000    105.905350
    5215           0     -1142.787354  -1632.069946  -14125.00000     97.623581
    5216           0     -1142.787354  -1632.069946  -14375.00000     97.370300
    5217           0     -1142.787354  -1632.069946  -14625.00000     96.305397
    5218           0     -1142.787354  -1632.069946  -14875.00000     94.835159
    5219           0     -1142.787354  -1632.069946  -15125.00000     93.764030
    5220           0     -1142.787354  -1632.069946  -15375.00000     92.584267
    5221           0     -1142.787354  -1632.069946  -15625.00000     91.540726
    5222           0     -1142.787354  -1632.069946  -15875.00000     90.495476
    5223           0     -1142.787354  -1632.069946  -16125.00000     89.534302
    5224           0     -1142.787354  -1632.069946  -16375.00000     88.589371
    5225           0     -1142.787354  -1632.069946  -16625.00000     87.694038
    5226           0     -1142.787354  -1632.069946  -16875.00000     86.812263
    5227           0     -1142.787354  -1632.069946  -17125.00000     85.946617
    5228           0     -1142.787354  -1632.069946  -17375.00000     85.075531
    5229           0     -1142.787354  -1632.069946  -17625.00000     84.185501
    5230           0     -1142.787354  -1632.069946  -17875.00000     83.259697
    5231           0     -1142.787354  -1632.069946  -18125.00000     82.277473
    5232           0     -1142.787354  -1632.069946  -18375.00000     81.222878
    5233           0     -1142.787354  -1632.069946  -18625.00000     80.073868
    5234           0     -1142.787354  -1632.069946  -18875.00000     78.814842
    5235           0     -1142.787354  -1632.069946  -19125.00000     77.426369
    5236           0     -1142.787354  -1632.069946  -19375.00000     75.894218
    5237           0     -1142.787354  -1632.069946  -19625.00000     74.204590
    5238           0     -1142.787354  -1632.069946  -19875.00000     72.345856
    5239           0     -1142.787354  -1632.069946  -20125.00000     70.312325
    5240           0     -1142.787354  -1632.069946  -20375.00000     68.095833
    5241           0     -1142.787354  -1632.069946  -20625.00000     65.701080
    5242           0     -1142.787354  -1632.069946  -20875.00000     63.123245
    5243           0     -1142.787354  -1632.069946  -21125.00000     60.379906
    5244           0     -1142.787354  -1632.069946  -21375.00000     57.468044
    5245           0     -1142.787354  -1632.069946  -21625.00000     54.421146
    5246           0     -1142.787354  -1632.069946  -21875.00000     51.234196
    5247           0     -1142.787354  -1632.069946  -22125.00000     47.960964
    5248           0     -1142.787354  -1632.069946  -22375.00000     44.586983
    5249           0     -1142.787354  -1632.069946  -22625.00000     41.193542
    5250           0     -1142.787354  -1632.069946  -22875.00000     37.744152
    5251           0     -1142.787354  -1632.069946  -23125.00000     34.360928
    5252           0     -1142.787354  -1632.069946  -23375.00000     30.966347
    5253           0     -1142.787354  -1632.069946  -23625.00000     27.749592
    5254           0     -1142.787354  -1632.069946  -23875.00000     24.568256
    5255           0     -1142.787354  -1632.069946  -24125.00000     21.727680
    5256           0     -1142.787354  -1632.069946  -24375.00000     19.006033
    5257           0     -1142.787354  -1632.069946  -24625.00000     16.887074
    5258           0     -1142.787354  -1632.069946  -24875.00000     15.095863
    5259           0     -1142.787354  -1632.069946  -25125.00000     14.255426
    5260           0     -1142.787354  -1632.069946  -25375.00000     13.984139
    5261           0     -1142.787354  -1632.069946  -25625.00000     14.860862
    5262           0     -1142.787354  -1632.069946  -25875.00000     15.278461
    5263           0     -1047.595581  -1698.723877  -13625.00000     95.927010
    5264           0     -1047.595581  -1698.723877  -13875.00000    101.462189
    5265           0     -1047.595581  -1698.723877  -14125.00000     99.187370
    5266           0     -1047.595581  -1698.723877  -14375.00000     97.867859
    5267           0     -1047.595581  -1698.723877  -14625.00000     96.788109
    5268           0     -1047.595581  -1698.723877  -14875.00000     95.752205
    5269           0     -1047.595581  -1698.723877  -15125.00000     94.675827
    5270           0     -1047.595581  -1698.723877  -15375.00000     93.723663
    5271           0     -1047.595581  -1698.723877  -15625.00000     92.761147
    5272           0     -1047.595581  -1698.723877  -15875.00000     91.870087
    5273           0     -1047.595581  -1698.723877  -16125.00000     90.990692
    5274           0     -1047.595581  -1698.723877  -16375.00000     90.151222
    5275           0     -1047.595581  -1698.723877  -16625.00000     89.321625
    5276           0     -1047.595581  -1698.723877  -16875.00000     88.504105
    5277           0     -1047.595581  -1698.723877  -17125.00000     87.680161
    5278           0     -1047.595581  -1698.723877  -17375.00000     86.837082
    5279           0     -1047.595581  -1698.723877  -17625.00000     85.959740
    5280           0     -1047.595581  -1698.723877  -17875.00000     85.027786
    5281           0     -1047.595581  -1698.723877  -18125.00000     84.026382
    5282           0     -1047.595581  -1698.723877  -18375.00000     82.932846
    5283           0     -1047.595581  -1698.723877  -18625.00000     81.732628
    5284           0     -1047.595581  -1698.723877  -18875.00000     80.404732
    5285           0     -1047.595581  -1698.723877  -19125.00000     78.936188
    5286           0     -1047.595581  -1698.723877  -19375.00000     77.310791
    5287           0     -1047.595581  -1698.723877  -19625.00000     75.518822
    5288           0     -1047.595581  -1698.723877  -19875.00000     73.551155
    5289           0     -1047.595581  -1698.723877  -20125.00000     71.402695
    5290           0     -1047.595581  -1698.723877  -20375.00000     69.073082
    5291           0     -1047.595581  -1698.723877  -20625.00000     66.562431
    5292           0     -1047.595581  -1698.723877  -20875.00000     63.880169
    5293           0     -1047.595581  -1698.723877  -21125.00000     61.031109
    5294           0     -1047.595581  -1698.723877  -21375.00000     58.034981
    5295           0     -1047.595581  -1698.723877  -21625.00000     54.899170
    5296           0     -1047.595581  -1698.723877  -21875.00000     51.653835
    5297           0     -1047.595581  -1698.723877  -22125.00000     48.305111
    5298           0     -1047.595581  -1698.723877  -22375.00000     44.893784
    5299           0     -1047.595581  -1698.723877  -22625.00000     41.419369
    5300           0     -1047.595581  -1698.723877  -22875.00000     37.934956
    5301           0     -1047.595581  -1698.723877  -23125.00000     34.428379
    5302           0     -1047.595581  -1698.723877  -23375.00000     30.969923
    5303           0     -1047.595581  -1698.723877  -23625.00000     27.537365
    5304           0     -1047.595581  -1698.723877  -23875.00000     24.225931
    5305           0     -1047.595581  -1698.723877  -24125.00000     21.033749
    5306           0     -1047.595581  -1698.723877  -24375.00000     18.077213
    5307           0     -1047.595581  -1698.723877  -24625.00000     15.509933
    5308           0     -1047.595581  -1698.723877  -24875.00000     13.373256
    5309           0     -1047.595581  -1698.723877  -25125.00000     12.371467
    5310           0     -1047.595581  -1698.723877  -25375.00000     11.866656
    5311           0     -1047.595581  -1698.723877  -25625.00000     12.931386
    5312           0     -1047.595581  -1698.723877  -25875.00000     15.608980
    5313           0      -947.339722  -1756.606689  -13625.00000     94.887947
    5314           0      -947.339722  -1756.606689  -13875.00000    104.697601
    5315           0      -947.339722  -1756.606689  -14125.00000    100.439835
    5316           0      -947.339722  -1756.606689  -14375.00000     99.316193
    5317           0      -947.339722  -1756.606689  -14625.00000     98.180382
    5318           0      -947.339722  -1756.606689  -14875.00000     96.932930
    5319           0      -947.339722  -1756.606689  -15125.00000     95.753311
    5320           0      -947.339722  -1756.606689  -15375.00000     94.623230
    5321           0      -947.339722  -1756.606689  -15625.00000     93.501160
    5322           0      -947.339722  -1756.606689  -15875.00000     92.423203
    5323           0      -947.339722  -1756.606689  -16125.00000     91.351349
    5324           0      -947.339722  -1756.606689  -16375.00000     90.307426
    5325           0      -947.339722  -1756.606689  -16625.00000     89.261017
    5326           0      -947.339722  -1756.606689  -16875.00000     88.222282
    5327           0      -947.339722  -1756.606689  -17125.00000     87.164566
    5328           0      -947.339722  -1756.606689  -17375.00000     86.087692
    5329           0      -947.339722  -1756.606689  -17625.00000     84.967186
    5330           0      -947.339722  -1756.606689  -17875.00000     83.795647
    5331           0      -947.339722  -1756.606689  -18125.00000     82.550484
    5332           0      -947.339722  -1756.606689  -18375.00000     81.220924
    5333           0      -947.339722  -1756.606689  -18625.00000     79.787003
    5334           0      -947.339722  -1756.606689  -18875.00000     78.238075
    5335           0      -947.339722  -1756.606689  -19125.00000     76.557846
    5336           0      -947.339722  -1756.606689  -19375.00000     74.738724
    5337           0      -947.339722  -1756.606689  -19625.00000     72.768898
    5338           0      -947.339722  -1756.606689  -19875.00000     70.646210
    5339           0      -947.339722  -1756.606689  -20125.00000     68.363731
    5340           0      -947.339722  -1756.606689  -20375.00000     65.926605
    5341           0      -947.339722  -1756.606689  -20625.00000     63.332184
    5342           0      -947.339722  -1756.606689  -20875.00000     60.594582
    5343           0      -947.339722  -1756.606689  -21125.00000     57.713314
    5344           0      -947.339722  -1756.606689  -21375.00000     54.713127
    5345           0      -947.339722  -1756.606689  -21625.00000     51.591373
    5346           0      -947.339722  -1756.606689  -21875.00000     48.385902
    5347           0      -947.339722  -1756.606689  -22125.00000     45.084175
    5348           0      -947.339722  -1756.606689  -22375.00000     41.742245
    5349           0      -947.339722  -1756.606689  -22625.00000     38.325226
    5350           0      -947.339722  -1756.606689  -22875.00000     34.919113
    5351           0      -947.339722  -1756.606689  -23125.00000     31.447166
    5352           0      -947.339722  -1756.606689  -23375.00000     28.051952
    5353           0      -947.339722  -1756.606689  -23625.00000     24.583902
    5354           0      -947.339722  -1756.606689  -23875.00000     21.300341
    5355           0      -947.339722  -1756.606689  -24125.00000     17.930033
    5356           0      -947.339722  -1756.606689  -24375.00000     14.972878
    5357           0      -947.339722  -1756.606689  -24625.00000     11.987904
    5358           0      -947.339722  -1756.606689  -24875.00000     10.004976
    5359           0      -947.339722  -1756.606689  -25125.00000      8.532793
    5360           0      -947.339722  -1756.606689  -25375.00000      8.830248
    5361           0      -947.339722  -1756.606689  -25625.00000     10.698453
    5362           0      -947.339722  -1756.606689  -25875.00000     11.291178
    5363           0      -842.019836  -1805.718140  -13625.00000     96.309494
    5364           0      -842.019836  -1805.718140  -13875.00000    111.627678
    5365           0      -842.019836  -1805.718140  -14125.00000    102.368782
    5366           0      -842.019836  -1805.718140  -14375.00000    101.966637
    5367           0      -842.019836  -1805.718140  -14625.00000    100.562218
    5368           0      -842.019836  -1805.718140  -14875.00000     98.711311
    5369           0      -842.019836  -1805.718140  -15125.00000     97.279099
    5370           0      -842.019836  -1805.718140  -15375.00000     95.661522
    5371           0      -842.019836  -1805.718140  -15625.00000     94.186928
    5372           0      -842.019836  -1805.718140  -15875.00000     92.645226
    5373           0      -842.019836  -1805.718140  -16125.00000     91.179543
    5374           0      -842.019836  -1805.718140  -16375.00000     89.675842
    5375           0      -842.019836  -1805.718140  -16625.00000     88.208336
    5376           0      -842.019836  -1805.718140  -16875.00000     86.711601
    5377           0      -842.019836  -1805.718140  -17125.00000     85.219116
    5378           0      -842.019836  -1805.718140  -17375.00000     83.691635
    5379           0      -842.019836  -1805.718140  -17625.00000     82.140144
    5380           0      -842.019836  -1805.718140  -17875.00000     80.538857
    5381           0      -842.019836  -1805.718140  -18125.00000     78.887512
    5382           0      -842.019836  -1805.718140  -18375.00000     77.167725
    5383           0      -842.019836  -1805.718140  -18625.00000     75.374916
    5384           0      -842.019836  -1805.718140  -18875.00000     73.495529
    5385           0      -842.019836  -1805.718140  -19125.00000     71.525024
    5386           0      -842.019836  -1805.718140  -19375.00000     69.453575
    5387           0      -842.019836  -1805.718140  -19625.00000     67.279617
    5388           0      -842.019836  -1805.718140  -19875.00000     64.996338
    5389           0      -842.019836  -1805.718140  -20125.00000     62.607193
    5390           0      -842.019836  -1805.718140  -20375.00000     60.107384
    5391           0      -842.019836  -1805.718140  -20625.00000     57.507099
    5392           0      -842.019836  -1805.718140  -20875.00000     54.801567
    5393           0      -842.019836  -1805.718140  -21125.00000     52.009617
    5394           0      -842.019836  -1805.718140  -21375.00000     49.122856
    5395           0      -842.019775  -1805.718140  -21625.00000     46.171570
    5396           0      -842.019775  -1805.718140  -21875.00000     43.137608
    5397           0      -842.019775  -1805.718140  -22125.00000     40.067936
    5398           0      -842.019775  -1805.718140  -22375.00000     36.924511
    5399           0      -842.019775  -1805.718140  -22625.00000     33.781292
    5400           0      -842.019775  -1805.718140  -22875.00000     30.563984
    5401           0      -842.019775  -1805.718140  -23125.00000     27.393793
    5402           0      -842.019775  -1805.718140  -23375.00000     24.133421
    5403           0      -842.019775  -1805.718140  -23625.00000     20.990101
    5404           0      -842.019775  -1805.718140  -23875.00000     17.720356
    5405           0      -842.019775  -1805.718140  -24125.00000     14.691288
    5406           0      -842.019775  -1805.718140  -24375.00000     11.497149
    5407           0      -842.019775  -1805.718140  -24625.00000      8.818358
    5408           0      -842.019775  -1805.718140  -24875.00000      6.204896
    5409           0      -842.019775  -1805.718140  -25125.00000      5.009781
    5410           0      -842.019775  -1805.718140  -25375.00000      5.750238
    5411           0      -842.019775  -1805.718140  -25625.00000      7.783972
    5412           0      -842.019836  -1805.718140  -25875.00000      8.676934
    5413           0      -736.699951  -1854.829468  -13625.00000    105.951736
    5414           0      -736.699951  -1854.829468  -13875.00000    112.534973
    5415           0      -736.699951  -1854.829468  -14125.00000    108.543587
    5416           0      -736.699951  -1854.829468  -14375.00000    106.823425
    5417           0      -736.699951  -1854.829468  -14625.00000    104.643417
    5418           0      -736.699951  -1854.829468  -14875.00000    102.838470
    5419           0      -736.699951  -1854.829468  -15125.00000    100.758591
    5420           0      -736.699951  -1854.829468  -15375.00000     98.906815
    5421           0      -736.699951  -1854.829468  -15625.00000     96.930740
    5422           0      -736.699951  -1854.829468  -15875.00000     95.061241
    5423           0      -736.699951  -1854.829468  -16125.00000     93.140991
    5424           0      -736.699951  -1854.829468  -16375.00000     91.270683
    5425           0      -736.699951  -1854.829468  -16625.00000     89.377617
    5426           0      -736.699951  -1854.829468  -16875.00000     87.503754
    5427           0      -736.699951  -1854.829468  -17125.00000     85.614677
    5428           0      -736.699951  -1854.829468  -17375.00000     83.724121
    5429           0      -736.699951  -1854.829468  -17625.00000     81.814468
    5430           0      -736.699951  -1854.829468  -17875.00000     79.885857
    5431           0      -736.699951  -1854.829468  -18125.00000     77.927452
    5432           0      -736.699951  -1854.829468  -18375.00000     75.933548
    5433           0      -736.699951  -1854.829468  -18625.00000     73.895996
    5434           0      -736.699951  -1854.829468  -18875.00000     71.807907
    5435           0      -736.699951  -1854.829468  -19125.00000     69.662788
    5436           0      -736.699951  -1854.829468  -19375.00000     67.455544
    5437           0      -736.699951  -1854.829468  -19625.00000     65.181404
    5438           0      -736.699951  -1854.829468  -19875.00000     62.839119
    5439           0      -736.699951  -1854.829468  -20125.00000     60.425499
    5440           0      -736.699951  -1854.829468  -20375.00000     57.944416
    5441           0      -736.699951  -1854.829468  -20625.00000     55.393448
    5442           0      -736.699951  -1854.829468  -20875.00000     52.782387
    5443           0      -736.699951  -1854.829468  -21125.00000     50.107513
    5444           0      -736.699951  -1854.829468  -21375.00000     47.385399
    5445           0      -736.699951  -1854.829468  -21625.00000     44.607552
    5446           0      -736.699951  -1854.829468  -21875.00000     41.799011
    5447           0      -736.699951  -1854.829468  -22125.00000     38.941288
    5448           0      -736.699951  -1854.829468  -22375.00000     36.071892
    5449           0      -736.699951  -1854.829468  -22625.00000     33.154907
    5450           0      -736.699951  -1854.829468  -22875.00000     30.248466
    5451           0      -736.699890  -1854.829468  -23125.00000     27.288437
    5452           0      -736.699890  -1854.829468  -23375.00000     24.368353
    5453           0      -736.699890  -1854.829468  -23625.00000     21.379612
    5454           0      -736.699890  -1854.829468  -23875.00000     18.474915
    5455           0      -736.699890  -1854.829468  -24125.00000     15.479121
    5456           0      -736.699890  -1854.829468  -24375.00000     12.638705
    5457           0      -736.699890  -1854.829468  -24625.00000      9.702995
    5458           0      -736.699890  -1854.829468  -24875.00000      7.055298
    5459           0      -736.699890  -1854.829468  -25125.00000      4.635475
    5460           0      -736.699890  -1854.829468  -25375.00000      3.269705
    5461           0      -736.699890  -1854.829468  -25625.00000      4.328506
    5462           0      -736.699951  -1854.829468  -25875.00000      6.876172
    5463           0      -627.916016  -1894.423584  -13625.00000    108.240868
    5464           0      -627.916016  -1894.423584  -13875.00000    118.304619
    5465           0      -627.916016  -1894.423584  -14125.00000    112.421867
    5466           0      -627.916016  -1894.423584  -14375.00000    110.330956
    5467           0      -627.916016  -1894.423584  -14625.00000    107.918503
    5468           0      -627.916016  -1894.423584  -14875.00000    105.554390
    5469           0      -627.916016  -1894.423584  -15125.00000    103.113457
    5470           0      -627.916016  -1894.423584  -15375.00000    100.801125
    5471           0      -627.916016  -1894.423584  -15625.00000     98.410080
    5472           0      -627.916016  -1894.423584  -15875.00000     96.110962
    5473           0      -627.916016  -1894.423584  -16125.00000     93.766937
    5474           0      -627.916016  -1894.423584  -16375.00000     91.486313
    5475           0      -627.916016  -1894.423584  -16625.00000     89.180771
    5476           0      -627.916016  -1894.423584  -16875.00000     86.919533
    5477           0      -627.916016  -1894.423584  -17125.00000     84.645103
    5478           0      -627.916016  -1894.423584  -17375.00000     82.400246
    5479           0      -627.916016  -1894.423584  -17625.00000     80.146797
    5480           0      -627.916016  -1894.423584  -17875.00000     77.909470
    5481           0      -627.916016  -1894.423584  -18125.00000     75.661644
    5482           0      -627.916016  -1894.423584  -18375.00000     73.416054
    5483           0      -627.916016  -1894.423584  -18625.00000     71.153221
    5484           0      -627.916016  -1894.423584  -18875.00000     68.878807
    5485           0      -627.916016  -1894.423584  -19125.00000     66.578537
    5486           0      -627.916016  -1894.423584  -19375.00000     64.254829
    5487           0      -627.916016  -1894.423584  -19625.00000     61.897892
    5488           0      -627.916016  -1894.423584  -19875.00000     59.509857
    5489           0      -627.916016  -1894.423584  -20125.00000     57.084816
    5490           0      -627.916016  -1894.423584  -20375.00000     54.626598
    5491           0      -627.916016  -1894.423584  -20625.00000     52.132080
    5492           0      -627.916016  -1894.423584  -20875.00000     49.607948
    5493           0      -627.916016  -1894.423584  -21125.00000     47.051819
    5494           0      -627.916016  -1894.423584  -21375.00000     44.474205
    5495           0      -627.916016  -1894.423584  -21625.00000     41.870110
    5496           0      -627.916016  -1894.423584  -21875.00000     39.255695
    5497           0      -627.916016  -1894.423584  -22125.00000     36.618176
    5498           0      -627.916016  -1894.423584  -22375.00000     33.983856
    5499           0      -627.916016  -1894.423584  -22625.00000     31.324108
    5500           0      -627.916016  -1894.423584  -22875.00000     28.685373
    5501           0      -627.916016  -1894.423584  -23125.00000     26.009430
    5502           0      -627.916016  -1894.423584  -23375.00000     23.382839
    5503           0      -627.916016  -1894.423584  -23625.00000     20.692225
    5504           0      -627.916016  -1894.423584  -23875.00000     18.102304
    5505           0      -627.916016  -1894.423584  -24125.00000     15.394570
    5506           0      -627.916016  -1894.423584  -24375.00000     12.885338
    5507           0      -627.916016  -1894.423584  -24625.00000     10.157026
    5508           0      -627.916016  -1894.423584  -24875.00000      7.824034
    5509           0      -627.916016  -1894.423584  -25125.00000      5.129857
    5510           0      -627.916016  -1894.423584  -25375.00000      3.268095
    5511           0      -627.916016  -1894.423584  -25625.00000      2.417871
    5512           0      -627.916016  -1894.423584  -25875.00000      3.551646
    5513           0      -515.667969  -1924.500366  -13625.00000    108.847443
    5514           0      -515.667969  -1924.500366  -13875.00000    126.195663
    5515           0      -515.667969  -1924.500366  -14125.00000    114.395164
    5516           0      -515.667969  -1924.500366  -14375.00000    112.902565
    5517           0      -515.667969  -1924.500366  -14625.00000    110.355293
    5518           0      -515.667969  -1924.500366  -14875.00000    107.139229
    5519           0      -515.667969  -1924.500366  -15125.00000    104.530167
    5520           0      -515.667969  -1924.500366  -15375.00000    101.596718
    5521           0      -515.667969  -1924.500366  -15625.00000     98.913376
    5522           0      -515.667969  -1924.500366  -15875.00000     96.095230
    5523           0      -515.667969  -1924.500366  -16125.00000     93.425880
    5524           0      -515.667969  -1924.500366  -16375.00000     90.694359
    5525           0      -515.667969  -1924.500366  -16625.00000     88.061279
    5526           0      -515.667969  -1924.500366  -16875.00000     85.407822
    5527           0      -515.667969  -1924.500366  -17125.00000     82.824326
    5528           0      -515.667969  -1924.500366  -17375.00000     80.243423
    5529           0      -515.667969  -1924.500366  -17625.00000     77.715332
    5530           0      -515.667969  -1924.500366  -17875.00000     75.200516
    5531           0      -515.667969  -1924.500366  -18125.00000     72.725983
    5532           0      -515.667969  -1924.500366  -18375.00000     70.267029
    5533           0      -515.667969  -1924.500366  -18625.00000     67.837273
    5534           0      -515.667969  -1924.500366  -18875.00000     65.420082
    5535           0      -515.667969  -1924.500366  -19125.00000     63.021832
    5536           0      -515.667969  -1924.500366  -19375.00000     60.630665
    5537           0      -515.667969  -1924.500366  -19625.00000     58.249851
    5538           0      -515.667969  -1924.500366  -19875.00000     55.870605
    5539           0      -515.667969  -1924.500366  -20125.00000     53.496021
    5540           0      -515.667969  -1924.500366  -20375.00000     51.119095
    5541           0      -515.667969  -1924.500366  -20625.00000     48.744923
    5542           0      -515.667969  -1924.500366  -20875.00000     46.366547
    5543           0      -515.667969  -1924.500366  -21125.00000     43.993050
    5544           0      -515.667969  -1924.500366  -21375.00000     41.614815
    5545           0      -515.667969  -1924.500366  -21625.00000     39.247501
    5546           0      -515.667969  -1924.500366  -21875.00000     36.874352
    5547           0      -515.667969  -1924.500366  -22125.00000     34.522224
    5548           0      -515.667969  -1924.500366  -22375.00000     32.159904
    5549           0      -515.667969  -1924.500366  -22625.00000     29.834187
    5550           0      -515.667969  -1924.500366  -22875.00000     27.486979
    5551           0      -515.667969  -1924.500366  -23125.00000     25.201509
    5552           0      -515.667969  -1924.500366  -23375.00000     22.870937
    5553           0      -515.667969  -1924.500366  -23625.00000     20.645397
    5554           0      -515.667969  -1924.500366  -23875.00000     18.330164
    5555           0      -515.667969  -1924.500366  -24125.00000     16.195793
    5556           0      -515.667969  -1924.500366  -24375.00000     13.892856
    5557           0      -515.667969  -1924.500366  -24625.00000     11.908068
    5558           0      -515.667969  -1924.500366  -24875.00000      9.618338
    5559           0      -515.667969  -1924.500366  -25125.00000      7.936543
    5560           0      -515.667969  -1924.500366  -25375.00000      5.638906
    5561           0      -515.667969  -1924.500366  -25625.00000      5.050320
    5562           0      -515.667969  -1924.500366  -25875.00000      2.226068
    5563           0      -403.420013  -1954.577148  -13625.00000    119.364258
    5564           0      -403.420013  -1954.577148  -13875.00000    127.256813
    5565           0      -403.420013  -1954.577148  -14125.00000    120.814018
    5566           0      -403.420013  -1954.577148  -14375.00000    118.082726
    5567           0      -403.420013  -1954.577148  -14625.00000    114.400604
    5568           0      -403.420013  -1954.577148  -14875.00000    111.303322
    5569           0      -403.420013  -1954.577148  -15125.00000    107.799355
    5570           0      -403.420013  -1954.577148  -15375.00000    104.627823
    5571           0      -403.420013  -1954.577148  -15625.00000    101.265976
    5572           0      -403.420013  -1954.577148  -15875.00000     98.083618
    5573           0      -403.420013  -1954.577148  -16125.00000     94.826370
    5574           0      -403.420013  -1954.577148  -16375.00000     91.680000
    5575           0      -403.420013  -1954.577148  -16625.00000     88.517357
    5576           0      -403.420013  -1954.577148  -16875.00000     85.435341
    5577           0      -403.420013  -1954.577148  -17125.00000     82.369904
    5578           0      -403.420013  -1954.577148  -17375.00000     79.372704
    5579           0      -403.420013  -1954.577148  -17625.00000     76.411530
    5580           0      -403.420013  -1954.577148  -17875.00000     73.514275
    5581           0      -403.420013  -1954.577148  -18125.00000     70.664413
    5582           0      -403.420013  -1954.577148  -18375.00000     67.876801
    5583           0      -403.420013  -1954.577148  -18625.00000     65.142067
    5584           0      -403.420013  -1954.577148  -18875.00000     62.467567
    5585           0      -403.420013  -1954.577148  -19125.00000     59.846771
    5586           0      -403.420013  -1954.577148  -19375.00000     57.282837
    5587           0      -403.420013  -1954.577148  -19625.00000     54.770004
    5588           0      -403.420013  -1954.577148  -19875.00000     52.309521
    5589           0      -403.420013  -1954.577148  -20125.00000     49.895485
    5590           0      -403.420013  -1954.577148  -20375.00000     47.529118
    5591           0      -403.420013  -1954.577148  -20625.00000     45.203701
    5592           0      -403.420013  -1954.577148  -20875.00000     42.922199
    5593           0      -403.420013  -1954.577148  -21125.00000     40.676003
    5594           0      -403.420013  -1954.577148  -21375.00000     38.471806
    5595           0      -403.420013  -1954.577148  -21625.00000     36.297192
    5596           0      -403.420013  -1954.577148  -21875.00000     34.165447
    5597           0      -403.420013  -1954.577148  -22125.00000     32.056904
    5598           0      -403.420013  -1954.577148  -22375.00000     29.996267
    5599           0      -403.420013  -1954.577148  -22625.00000     27.950621
    5600           0      -403.420013  -1954.577148  -22875.00000     25.964418
    5601           0      -403.420013  -1954.577148  -23125.00000     23.981054
    5602           0      -403.420013  -1954.577148  -23375.00000     22.079067
    5603           0      -403.420013  -1954.577148  -23625.00000     20.159931
    5604           0      -403.419983  -1954.577148  -23875.00000     18.360958
    5605           0      -403.419983  -1954.577148  -24125.00000     16.509588
    5606           0      -403.419983  -1954.577148  -24375.00000     14.845283
    5607           0      -403.419983  -1954.577148  -24625.00000     13.067789
    5608           0      -403.419983  -1954.577148  -24875.00000     11.583203
    5609           0      -403.419983  -1954.577148  -25125.00000      9.912295
    5610           0      -403.419983  -1954.577148  -25375.00000      8.615564
    5611           0      -403.419983  -1954.577148  -25625.00000      7.423220
    5612           0      -403.420013  -1954.577148  -25875.00000      4.617621
    5613           0      -289.413330  -1974.679565  -13625.00000    121.318329
    5614           0      -289.413330  -1974.679565  -13875.00000    130.657883
    5615           0      -289.413330  -1974.679565  -14125.00000    123.278397
    5616           0      -289.413330  -1974.679565  -14375.00000    120.172165
    5617           0      -289.413330  -1974.679565  -14625.00000    116.288574
    5618           0      -289.413330  -1974.679565  -14875.00000    112.783722
    5619           0      -289.413330  -1974.679565  -15125.00000    108.995094
    5620           0      -289.413330  -1974.679565  -15375.00000    105.483017
    5621           0      -289.413330  -1974.679565  -15625.00000    101.811462
    5622           0      -289.413330  -1974.679565  -15875.00000     98.316414
    5623           0      -289.413330  -1974.679565  -16125.00000     94.752716
    5624           0      -289.413330  -1974.679565  -16375.00000     91.314560
    5625           0      -289.413330  -1974.679565  -16625.00000     87.861465
    5626           0      -289.413330  -1974.679565  -16875.00000     84.509979
    5627           0      -289.413330  -1974.679565  -17125.00000     81.178810
    5628           0      -289.413330  -1974.679565  -17375.00000     77.939354
    5629           0      -289.413330  -1974.679565  -17625.00000     74.744835
    5630           0      -289.413330  -1974.679565  -17875.00000     71.639595
    5631           0      -289.413330  -1974.679565  -18125.00000     68.596695
    5632           0      -289.413330  -1974.679565  -18375.00000     65.643509
    5633           0      -289.413330  -1974.679565  -18625.00000     62.763966
    5634           0      -289.413330  -1974.679565  -18875.00000     59.974224
    5635           0      -289.413330  -1974.679565  -19125.00000     57.263714
    5636           0      -289.413330  -1974.679565  -19375.00000     54.640751
    5637           0      -289.413330  -1974.679565  -19625.00000     52.097298
    5638           0      -289.413330  -1974.679565  -19875.00000     49.636284
    5639           0      -289.413330  -1974.679565  -20125.00000     47.250740
    5640           0      -289.413330  -1974.679565  -20375.00000     44.940247
    5641           0      -289.413330  -1974.679565  -20625.00000     42.698288
    5642           0      -289.413330  -1974.679565  -20875.00000     40.522968
    5643           0      -289.413330  -1974.679565  -21125.00000     38.407875
    5644           0      -289.413330  -1974.679565  -21375.00000     36.351589
    5645           0      -289.413330  -1974.679565  -21625.00000     34.347092
    5646           0      -289.413330  -1974.679565  -21875.00000     32.395882
    5647           0      -289.413330  -1974.679565  -22125.00000     30.488686
    5648           0      -289.413361  -1974.679565  -22375.00000     28.633572
    5649           0      -289.413361  -1974.679565  -22625.00000     26.815441
    5650           0      -289.413361  -1974.679565  -22875.00000     25.054886
    5651           0      -289.413361  -1974.679565  -23125.00000     23.323805
    5652           0      -289.413361  -1974.679565  -23375.00000     21.665777
    5653           0      -289.413361  -1974.679565  -23625.00000     20.025703
    5654           0      -289.413361  -1974.679565  -23875.00000     18.488670
    5655           0      -289.413361  -1974.679565  -24125.00000     16.947172
    5656           0      -289.413361  -1974.679565  -24375.00000     15.560815
    5657           0      -289.413361  -1974.679565  -24625.00000     14.123214
    5658           0      -289.413361  -1974.679565  -24875.00000     12.928752
    5659           0      -289.413361  -1974.679565  -25125.00000     11.612634
    5660           0      -289.413361  -1974.679565  -25375.00000     10.504549
    5661           0      -289.413361  -1974.679565  -25625.00000     10.136956
    5662           0      -289.413330  -1974.679565  -25875.00000      7.202926
    5663           0      -173.647873  -1984.807617  -13625.00000    116.901993
    5664           0      -173.647873  -1984.807617  -13875.00000    135.428909
    5665           0      -173.647873  -1984.807617  -14125.00000    121.825996
    5666           0      -173.647873  -1984.807617  -14375.00000    119.430946
    5667           0      -173.647873  -1984.807617  -14625.00000    115.988174
    5668           0      -173.647873  -1984.807617  -14875.00000    111.719681
    5669           0      -173.647873  -1984.807617  -15125.00000    108.201332
    5670           0      -173.647873  -1984.807617  -15375.00000    104.271957
    5671           0      -173.647873  -1984.807617  -15625.00000    100.678322
    5672           0      -173.647873  -1984.807617  -15875.00000     96.915451
    5673           0      -173.647873  -1984.807617  -16125.00000     93.363472
    5674           0      -173.647873  -1984.807617  -16375.00000     89.745636
    5675           0      -173.647873  -1984.807617  -16625.00000     86.280151
    5676           0      -173.647873  -1984.807617  -16875.00000     82.811913
    5677           0      -173.647873  -1984.807617  -17125.00000     79.467628
    5678           0      -173.647873  -1984.807617  -17375.00000     76.160797
    5679           0      -173.647888  -1984.807617  -17625.00000     72.966225
    5680           0      -173.647888  -1984.807617  -17875.00000     69.835701
    5681           0      -173.647888  -1984.807617  -18125.00000     66.813942
    5682           0      -173.647888  -1984.807617  -18375.00000     63.873768
    5683           0      -173.647888  -1984.807617  -18625.00000     61.041595
    5684           0      -173.647888  -1984.807617  -18875.00000     58.301220
    5685           0      -173.647888  -1984.807617  -19125.00000     55.667229
    5686           0      -173.647888  -1984.807617  -19375.00000     53.128422
    5687           0      -173.647873  -1984.807617  -19625.00000     50.691387
    5688           0      -173.647873  -1984.807617  -19875.00000     48.346584
    5689           0      -173.647873  -1984.807617  -20125.00000     46.095234
    5690           0      -173.647873  -1984.807617  -20375.00000     43.927711
    5691           0      -173.647888  -1984.807617  -20625.00000     41.842350
    5692           0      -173.647888  -1984.807617  -20875.00000     39.828503
    5693           0      -173.647888  -1984.807617  -21125.00000     37.884315
    5694           0      -173.647888  -1984.807617  -21375.00000     35.997292
    5695           0      -173.647888  -1984.807617  -21625.00000     34.168705
    5696           0      -173.647888  -1984.807617  -21875.00000     32.382519
    5697           0      -173.647888  -1984.807617  -22125.00000     30.647785
    5698           0      -173.647888  -1984.807617  -22375.00000     28.941029
    5699           0      -173.647888  -1984.807617  -22625.00000     27.286263
    5700           0      -173.647888  -1984.807617  -22875.00000     25.644440
    5701           0      -173.647888  -1984.807617  -23125.00000     24.066622
    5702           0      -173.647888  -1984.807617  -23375.00000     22.482401
    5703           0      -173.647888  -1984.807617  -23625.00000     20.991211
    5704           0      -173.647888  -1984.807617  -23875.00000     19.461756
    5705           0      -173.647888  -1984.807617  -24125.00000     18.080799
    5706           0      -173.647888  -1984.807617  -24375.00000     16.602165
    5707           0      -173.647888  -1984.807617  -24625.00000     15.368713
    5708           0      -173.647888  -1984.807617  -24875.00000     13.922442
    5709           0      -173.647903  -1984.807617  -25125.00000     12.950777
    5710           0      -173.647903  -1984.807617  -25375.00000     11.199057
    5711           0      -173.647903  -1984.807617  -25625.00000     11.633420
    5712           0      -173.647888  -1984.807617  -25875.00000      8.178930
    5713           0       -57.882427  -1994.935791  -13625.00000    123.603165
    5714           0       -57.882427  -1994.935791  -13875.00000    132.858368
    5715           0       -57.882427  -1994.935791  -14125.00000    124.919762
    5716           0       -57.882427  -1994.935791  -14375.00000    121.592972
    5717           0       -57.882427  -1994.935791  -14625.00000    117.251358
    5718           0       -57.882427  -1994.935791  -14875.00000    113.432053
    5719           0       -57.882427  -1994.935791  -15125.00000    109.251213
    5720           0       -57.882427  -1994.935791  -15375.00000    105.401657
    5721           0       -57.882427  -1994.935791  -15625.00000    101.369972
    5722           0       -57.882427  -1994.935791  -15875.00000     97.541603
    5723           0       -57.882427  -1994.935791  -16125.00000     93.644806
    5724           0       -57.882427  -1994.935791  -16375.00000     89.890816
    5725           0       -57.882427  -1994.935791  -16625.00000     86.132965
    5726           0       -57.882427  -1994.935791  -16875.00000     82.491997
    5727           0       -57.882427  -1994.935791  -17125.00000     78.888023
    5728           0       -57.882427  -1994.935791  -17375.00000     75.392143
    5729           0       -57.882427  -1994.935791  -17625.00000     71.961227
    5730           0       -57.882427  -1994.935791  -17875.00000     68.638351
    5731           0       -57.882427  -1994.935791  -18125.00000     65.400696
    5732           0       -57.882427  -1994.935791  -18375.00000     62.274887
    5733           0       -57.882427  -1994.935791  -18625.00000     59.248970
    5734           0       -57.882427  -1994.935791  -18875.00000     56.339169
    5735           0       -57.882427  -1994.935791  -19125.00000     53.538624
    5736           0       -57.882427  -1994.935791  -19375.00000     50.856251
    5737           0       -57.882423  -1994.935791  -19625.00000     48.286621
    5738           0       -57.882420  -1994.935791  -19875.00000     45.833076
    5739           0       -57.882420  -1994.935791  -20125.00000     43.489479
    5740           0       -57.882420  -1994.935791  -20375.00000     41.255066
    5741           0       -57.882420  -1994.935791  -20625.00000     39.122013
    5742           0       -57.882420  -1994.935791  -20875.00000     37.087337
    5743           0       -57.882420  -1994.935791  -21125.00000     35.141266
    5744           0       -57.882420  -1994.935791  -21375.00000     33.281326
    5745           0       -57.882420  -1994.935791  -21625.00000     31.495577
    5746           0       -57.882420  -1994.935791  -21875.00000     29.785810
    5747           0       -57.882420  -1994.935791  -22125.00000     28.136667
    5748           0       -57.882420  -1994.935791  -22375.00000     26.559490
    5749           0       -57.882420  -1994.935791  -22625.00000     25.031584
    5750           0       -57.882420  -1994.935791  -22875.00000     23.581699
    5751           0       -57.882420  -1994.935791  -23125.00000     22.170729
    5752           0       -57.882420  -1994.935791  -23375.00000     20.857676
    5753           0       -57.882420  -1994.935791  -23625.00000     19.568977
    5754           0       -57.882420  -1994.935791  -23875.00000     18.416105
    5755           0       -57.882420  -1994.935791  -24125.00000     17.257973
    5756           0       -57.882420  -1994.935791  -24375.00000     16.297388
    5757           0       -57.882420  -1994.935791  -24625.00000     15.269703
    5758           0       -57.882420  -1994.935791  -24875.00000     14.527629
    5759           0       -57.882420  -1994.935791  -25125.00000     13.626763
    5760           0       -57.882420  -1994.935791  -25375.00000     13.045194
    5761           0       -57.882420  -1994.935791  -25625.00000     12.596082
    5762           0       -57.882423  -1994.935791  -25875.00000     10.346183
    5763           0        57.883011  -1994.935791  -13625.00000    123.082230
    5764           0        57.883011  -1994.935791  -13875.00000    130.826874
    5765           0        57.883011  -1994.935791  -14125.00000    123.520920
    5766           0        57.883011  -1994.935791  -14375.00000    120.192574
    5767           0        57.883011  -1994.935791  -14625.00000    115.826767
    5768           0        57.883011  -1994.935791  -14875.00000    112.092819
    5769           0        57.883011  -1994.935791  -15125.00000    107.926300
    5770           0        57.883011  -1994.935791  -15375.00000    104.129158
    5771           0        57.883011  -1994.935791  -15625.00000    100.128349
    5772           0        57.883011  -1994.935791  -15875.00000     96.344246
    5773           0        57.883011  -1994.935791  -16125.00000     92.483345
    5774           0        57.883011  -1994.935791  -16375.00000     88.770653
    5775           0        57.883018  -1994.935791  -16625.00000     85.050819
    5776           0        57.883018  -1994.935791  -16875.00000     81.449997
    5777           0        57.883018  -1994.935791  -17125.00000     77.884880
    5778           0        57.883018  -1994.935791  -17375.00000     74.428665
    5779           0        57.883018  -1994.935791  -17625.00000     71.036812
    5780           0        57.883018  -1994.935791  -17875.00000     67.753258
    5781           0        57.883018  -1994.935791  -18125.00000     64.554436
    5782           0        57.883018  -1994.935791  -18375.00000     61.467426
    5783           0        57.883018  -1994.935791  -18625.00000     58.479687
    5784           0        57.883018  -1994.935791  -18875.00000     55.607761
    5785           0        57.883018  -1994.935791  -19125.00000     52.844246
    5786           0        57.883018  -1994.935791  -19375.00000     50.198318
    5787           0        57.883018  -1994.935791  -19625.00000     47.664040
    5788           0        57.883018  -1994.935791  -19875.00000     45.244968
    5789           0        57.883018  -1994.935791  -20125.00000     42.934563
    5790           0        57.883018  -1994.935791  -20375.00000     40.732136
    5791           0        57.883018  -1994.935791  -20625.00000     38.629692
    5792           0        57.883018  -1994.935791  -20875.00000     36.624081
    5793           0        57.883018  -1994.935791  -21125.00000     34.705795
    5794           0        57.883018  -1994.935791  -21375.00000     32.871674
    5795           0        57.883018  -1994.935791  -21625.00000     31.110939
    5796           0        57.883018  -1994.935791  -21875.00000     29.423517
    5797           0        57.883018  -1994.935791  -22125.00000     27.797205
    5798           0        57.883018  -1994.935791  -22375.00000     26.238810
    5799           0        57.883018  -1994.935791  -22625.00000     24.733023
    5800           0        57.883022  -1994.935791  -22875.00000     23.298166
    5801           0        57.883026  -1994.935791  -23125.00000     21.911591
    5802           0        57.883026  -1994.935791  -23375.00000     20.609026
    5803           0        57.883026  -1994.935791  -23625.00000     19.352432
    5804           0        57.883026  -1994.935791  -23875.00000     18.202728
    5805           0        57.883026  -1994.935791  -24125.00000     17.093954
    5806           0        57.883026  -1994.935791  -24375.00000     16.121723
    5807           0        57.883026  -1994.935791  -24625.00000     15.177444
    5808           0        57.883026  -1994.935791  -24875.00000     14.391500
    5809           0        57.883026  -1994.935791  -25125.00000     13.654610
    5810           0        57.883026  -1994.935791  -25375.00000     12.865022
    5811           0        57.883026  -1994.935791  -25625.00000     13.109851
    5812           0        57.883018  -1994.935791  -25875.00000     10.392023
    5813           0       173.648453  -1984.807617  -13625.00000    112.819000
    5814           0       173.648453  -1984.807617  -13875.00000    130.606750
    5815           0       173.648453  -1984.807617  -14125.00000    117.453842
    5816           0       173.648438  -1984.807617  -14375.00000    115.151672
    5817           0       173.648438  -1984.807617  -14625.00000    111.789299
    5818           0       173.648438  -1984.807617  -14875.00000    107.668243
    5819           0       173.648438  -1984.807617  -15125.00000    104.249603
    5820           0       173.648438  -1984.807617  -15375.00000    100.450500
    5821           0       173.648438  -1984.807617  -15625.00000     96.967400
    5822           0       173.648438  -1984.807617  -15875.00000     93.329758
    5823           0       173.648438  -1984.807617  -16125.00000     89.893166
    5824           0       173.648438  -1984.807617  -16375.00000     86.398590
    5825           0       173.648438  -1984.807617  -16625.00000     83.051346
    5826           0       173.648438  -1984.807617  -16875.00000     79.705559
    5827           0       173.648438  -1984.807617  -17125.00000     76.481148
    5828           0       173.648438  -1984.807617  -17375.00000     73.296310
    5829           0       173.648438  -1984.807617  -17625.00000     70.222260
    5830           0       173.648438  -1984.807617  -17875.00000     67.213013
    5831           0       173.648438  -1984.807617  -18125.00000     64.311249
    5832           0       173.648422  -1984.807617  -18375.00000     61.490772
    5833           0       173.648407  -1984.807617  -18625.00000     58.776752
    5834           0       173.648407  -1984.807617  -18875.00000     56.153183
    5835           0       173.648407  -1984.807617  -19125.00000     53.633873
    5836           0       173.648407  -1984.807617  -19375.00000     51.207474
    5837           0       173.648407  -1984.807617  -19625.00000     48.880024
    5838           0       173.648407  -1984.807617  -19875.00000     46.641685
    5839           0       173.648407  -1984.807617  -20125.00000     44.493378
    5840           0       173.648407  -1984.807617  -20375.00000     42.425133
    5841           0       173.648407  -1984.807617  -20625.00000     40.435196
    5842           0       173.648407  -1984.807617  -20875.00000     38.512634
    5843           0       173.648407  -1984.807617  -21125.00000     36.655685
    5844           0       173.648407  -1984.807617  -21375.00000     34.851669
    5845           0       173.648407  -1984.807617  -21625.00000     33.102192
    5846           0       173.648407  -1984.807617  -21875.00000     31.391134
    5847           0       173.648407  -1984.807617  -22125.00000     29.728117
    5848           0       173.648407  -1984.807617  -22375.00000     28.089895
    5849           0       173.648392  -1984.807617  -22625.00000     26.501129
    5850           0       173.648376  -1984.807617  -22875.00000     24.923677
    5851           0       173.648392  -1984.807617  -23125.00000     23.408978
    5852           0       173.648392  -1984.807617  -23375.00000     21.888960
    5853           0       173.648392  -1984.807617  -23625.00000     20.462042
    5854           0       173.648376  -1984.807617  -23875.00000     19.002741
    5855           0       173.648376  -1984.807617  -24125.00000     17.691879
    5856           0       173.648376  -1984.807617  -24375.00000     16.298874
    5857           0       173.648376  -1984.807617  -24625.00000     15.145526
    5858           0       173.648376  -1984.807617  -24875.00000     13.818946
    5859           0       173.648376  -1984.807617  -25125.00000     12.922450
    5860           0       173.648376  -1984.807617  -25375.00000     11.400815
    5861           0       173.648376  -1984.807617  -25625.00000     11.811456
    5862           0       173.648422  -1984.807617  -25875.00000      8.718316
    5863           0       289.413879  -1974.679443  -13625.00000    113.229561
    5864           0       289.413879  -1974.679443  -13875.00000    123.414413
    5865           0       289.413879  -1974.679443  -14125.00000    115.876770
    5866           0       289.413879  -1974.679443  -14375.00000    112.945801
    5867           0       289.413879  -1974.679443  -14625.00000    109.350594
    5868           0       289.413879  -1974.679443  -14875.00000    105.965950
    5869           0       289.413879  -1974.679443  -15125.00000    102.414215
    5870           0       289.413879  -1974.679443  -15375.00000     99.067398
    5871           0       289.413879  -1974.679443  -15625.00000     95.606895
    5872           0       289.413879  -1974.679443  -15875.00000     92.292542
    5873           0       289.413879  -1974.679443  -16125.00000     88.930557
    5874           0       289.413879  -1974.679443  -16375.00000     85.679871
    5875           0       289.413879  -1974.679443  -16625.00000     82.424149
    5876           0       289.413879  -1974.679443  -16875.00000     79.263206
    5877           0       289.413849  -1974.679443  -17125.00000     76.127014
    5878           0       289.413849  -1974.679443  -17375.00000     73.078903
    5879           0       289.413849  -1974.679443  -17625.00000     70.077354
    5880           0       289.413849  -1974.679443  -17875.00000     67.162498
    5881           0       289.413849  -1974.679443  -18125.00000     64.309761
    5882           0       289.413849  -1974.679443  -18375.00000     61.544113
    5883           0       289.413849  -1974.679443  -18625.00000     58.850483
    5884           0       289.413849  -1974.679443  -18875.00000     56.243427
    5885           0       289.413849  -1974.679443  -19125.00000     53.712696
    5886           0       289.413849  -1974.679443  -19375.00000     51.265556
    5887           0       289.413849  -1974.679443  -19625.00000     48.894001
    5888           0       289.413849  -1974.679443  -19875.00000     46.600330
    5889           0       289.413849  -1974.679443  -20125.00000     44.377480
    5890           0       289.413849  -1974.679443  -20375.00000     42.224888
    5891           0       289.413849  -1974.679443  -20625.00000     40.135815
    5892           0       289.413849  -1974.679443  -20875.00000     38.108879
    5893           0       289.413849  -1974.679443  -21125.00000     36.137047
    5894           0       289.413818  -1974.679443  -21375.00000     34.220440
    5895           0       289.413818  -1974.679443  -21625.00000     32.350563
    5896           0       289.413818  -1974.679443  -21875.00000     30.532223
    5897           0       289.413818  -1974.679443  -22125.00000     28.752743
    5898           0       289.413818  -1974.679443  -22375.00000     27.026937
    5899           0       289.413818  -1974.679443  -22625.00000     25.332197
    5900           0       289.413818  -1974.679443  -22875.00000     23.702785
    5901           0       289.413818  -1974.679443  -23125.00000     22.094316
    5902           0       289.413818  -1974.679443  -23375.00000     20.577955
    5903           0       289.413818  -1974.679443  -23625.00000     19.063835
    5904           0       289.413818  -1974.679443  -23875.00000     17.693052
    5905           0       289.413818  -1974.679443  -24125.00000     16.283894
    5906           0       289.413818  -1974.679443  -24375.00000     15.110265
    5907           0       289.413818  -1974.679443  -24625.00000     13.810863
    5908           0       289.413818  -1974.679443  -24875.00000     12.906698
    5909           0       289.413818  -1974.679443  -25125.00000     11.706527
    5910           0       289.413818  -1974.679443  -25375.00000     11.136629
    5911           0       289.413788  -1974.679443  -25625.00000     10.211769
    5912           0       289.413849  -1974.679443  -25875.00000      8.486328
    5913           0       403.420563  -1954.577026  -13625.00000    110.208321
    5914           0       403.420563  -1954.577026  -13875.00000    116.036789
    5915           0       403.420563  -1954.577026  -14125.00000    110.668365
    5916           0       403.420563  -1954.577026  -14375.00000    108.102310
    5917           0       403.420563  -1954.577026  -14625.00000    104.669075
    5918           0       403.420563  -1954.577026  -14875.00000    101.850906
    5919           0       403.420563  -1954.577026  -15125.00000     98.615822
    5920           0       403.420563  -1954.577026  -15375.00000     95.705994
    5921           0       403.420563  -1954.577026  -15625.00000     92.616425
    5922           0       403.420563  -1954.577026  -15875.00000     89.695908
    5923           0       403.420563  -1954.577026  -16125.00000     86.708817
    5924           0       403.420563  -1954.577026  -16375.00000     83.824997
    5925           0       403.420563  -1954.577026  -16625.00000     80.930229
    5926           0       403.420563  -1954.577026  -16875.00000     78.110634
    5927           0       403.420563  -1954.577026  -17125.00000     75.310402
    5928           0       403.420563  -1954.577026  -17375.00000     72.574219
    5929           0       403.420563  -1954.577026  -17625.00000     69.874657
    5930           0       403.420563  -1954.577026  -17875.00000     67.235283
    5931           0       403.420563  -1954.577026  -18125.00000     64.641998
    5932           0       403.420563  -1954.577026  -18375.00000     62.107010
    5933           0       403.420563  -1954.577026  -18625.00000     59.622002
    5934           0       403.420563  -1954.577026  -18875.00000     57.192760
    5935           0       403.420563  -1954.577026  -19125.00000     54.813118
    5936           0       403.420563  -1954.577026  -19375.00000     52.485352
    5937           0       403.420563  -1954.577026  -19625.00000     50.203888
    5938           0       403.420563  -1954.577026  -19875.00000     47.969582
    5939           0       403.420563  -1954.577026  -20125.00000     45.776848
    5940           0       403.420563  -1954.577026  -20375.00000     43.626804
    5941           0       403.420563  -1954.577026  -20625.00000     41.513451
    5942           0       403.420563  -1954.577026  -20875.00000     39.439613
    5943           0       403.420563  -1954.577026  -21125.00000     37.398159
    5944           0       403.420563  -1954.577026  -21375.00000     35.395115
    5945           0       403.420563  -1954.577026  -21625.00000     33.420891
    5946           0       403.420563  -1954.577026  -21875.00000     31.486641
    5947           0       403.420563  -1954.577026  -22125.00000     29.578281
    5948           0       403.420563  -1954.577026  -22375.00000     27.715008
    5949           0       403.420563  -1954.577026  -22625.00000     25.875256
    5950           0       403.420563  -1954.577026  -22875.00000     24.090591
    5951           0       403.420563  -1954.577026  -23125.00000     22.328203
    5952           0       403.420563  -1954.577026  -23375.00000     20.637243
    5953           0       403.420563  -1954.577026  -23625.00000     18.969969
    5954           0       403.420563  -1954.577026  -23875.00000     17.397060
    5955           0       403.420563  -1954.577026  -24125.00000     15.857281
    5956           0       403.420563  -1954.577026  -24375.00000     14.436030
    5957           0       403.420563  -1954.577026  -24625.00000     13.084500
    5958           0       403.420563  -1954.577026  -24875.00000     11.844085
    5959           0       403.420563  -1954.577026  -25125.00000     10.827003
    5960           0       403.420563  -1954.577026  -25375.00000      9.715911
    5961           0       403.420563  -1954.577026  -25625.00000      9.412397
    5962           0       403.420563  -1954.577026  -25875.00000      8.538338
    5963           0       515.668518  -1924.500244  -13625.00000     96.765358
    5964           0       515.668518  -1924.500244  -13875.00000    111.910973
    5965           0       515.668518  -1924.500244  -14125.00000    101.449043
    5966           0       515.668518  -1924.500244  -14375.00000    100.226212
    5967           0       515.668518  -1924.500244  -14625.00000     97.914246
    5968           0       515.668518  -1924.500244  -14875.00000     95.128860
    5969           0       515.668518  -1924.500244  -15125.00000     92.809319
    5970           0       515.668518  -1924.500244  -15375.00000     90.252716
    5971           0       515.668518  -1924.500244  -15625.00000     87.887329
    5972           0       515.668518  -1924.500244  -15875.00000     85.427711
    5973           0       515.668518  -1924.500244  -16125.00000     83.086113
    5974           0       515.668518  -1924.500244  -16375.00000     80.702965
    5975           0       515.668518  -1924.500244  -16625.00000     78.401352
    5976           0       515.668518  -1924.500244  -16875.00000     76.088997
    5977           0       515.668518  -1924.500244  -17125.00000     73.836662
    5978           0       515.668518  -1924.500244  -17375.00000     71.590317
    5979           0       515.668518  -1924.500244  -17625.00000     69.389862
    5980           0       515.668518  -1924.500244  -17875.00000     67.202278
    5981           0       515.668518  -1924.500244  -18125.00000     65.049118
    5982           0       515.668518  -1924.500244  -18375.00000     62.908733
    5983           0       515.668518  -1924.500244  -18625.00000     60.791885
    5984           0       515.668518  -1924.500244  -18875.00000     58.683388
    5985           0       515.668518  -1924.500244  -19125.00000     56.588310
    5986           0       515.668518  -1924.500244  -19375.00000     54.495552
    5987           0       515.668518  -1924.500244  -19625.00000     52.408073
    5988           0       515.668518  -1924.500244  -19875.00000     50.317646
    5989           0       515.668518  -1924.500244  -20125.00000     48.227757
    5990           0       515.668518  -1924.500244  -20375.00000     46.132000
    5991           0       515.668518  -1924.500244  -20625.00000     44.036343
    5992           0       515.668518  -1924.500244  -20875.00000     41.934574
    5993           0       515.668518  -1924.500244  -21125.00000     39.836998
    5994           0       515.668518  -1924.500244  -21375.00000     37.734943
    5995           0       515.668518  -1924.500244  -21625.00000     35.645512
    5996           0       515.668518  -1924.500244  -21875.00000     33.553299
    5997           0       515.668518  -1924.500244  -22125.00000     31.486597
    5998           0       515.668518  -1924.500244  -22375.00000     29.416546
    5999           0       515.668518  -1924.500244  -22625.00000     27.390886
    6000           0       515.668579  -1924.500244  -22875.00000     25.356562
    6001           0       515.668579  -1924.500244  -23125.00000     23.395891
    6002           0       515.668579  -1924.500244  -23375.00000     21.414007
    6003           0       515.668579  -1924.500244  -23625.00000     19.553535
    6004           0       515.668579  -1924.500244  -23875.00000     17.650684
    6005           0       515.668579  -1924.500244  -24125.00000     15.948073
    6006           0       515.668579  -1924.500244  -24375.00000     14.177241
    6007           0       515.668579  -1924.500244  -24625.00000     12.729087
    6008           0       515.668579  -1924.500244  -24875.00000     11.217426
    6009           0       515.668579  -1924.500244  -25125.00000     10.164626
    6010           0       515.668579  -1924.500244  -25375.00000      9.210670
    6011           0       515.668579  -1924.500244  -25625.00000      8.850304
    6012           0       515.668579  -1924.500244  -25875.00000      8.099794
    6013           0       627.916504  -1894.423340  -13625.00000     91.932854
    6014           0       627.916504  -1894.423340  -13875.00000    102.056313
    6015           0       627.916504  -1894.423340  -14125.00000     96.501137
    6016           0       627.916504  -1894.423340  -14375.00000     94.758286
    6017           0       627.916504  -1894.423340  -14625.00000     92.866570
    6018           0       627.916504  -1894.423340  -14875.00000     90.824318
    6019           0       627.916504  -1894.423340  -15125.00000     88.843697
    6020           0       627.916504  -1894.423340  -15375.00000     86.899872
    6021           0       627.916504  -1894.423340  -15625.00000     84.933296
    6022           0       627.916504  -1894.423340  -15875.00000     83.017166
    6023           0       627.916504  -1894.423340  -16125.00000     81.080070
    6024           0       627.916504  -1894.423340  -16375.00000     79.185371
    6025           0       627.916504  -1894.423340  -16625.00000     77.275093
    6026           0       627.916504  -1894.423340  -16875.00000     75.397438
    6027           0       627.916504  -1894.423340  -17125.00000     73.508705
    6028           0       627.916504  -1894.423340  -17375.00000     71.641937
    6029           0       627.916504  -1894.423340  -17625.00000     69.765022
    6030           0       627.916504  -1894.423340  -17875.00000     67.898300
    6031           0       627.916504  -1894.423340  -18125.00000     66.017731
    6032           0       627.916504  -1894.423340  -18375.00000     64.134285
    6033           0       627.916504  -1894.423340  -18625.00000     62.229683
    6034           0       627.916504  -1894.423340  -18875.00000     60.309139
    6035           0       627.916504  -1894.423340  -19125.00000     58.359100
    6036           0       627.916504  -1894.423340  -19375.00000     56.382366
    6037           0       627.916504  -1894.423340  -19625.00000     54.369682
    6038           0       627.916504  -1894.423340  -19875.00000     52.324223
    6039           0       627.916504  -1894.423340  -20125.00000     50.240547
    6040           0       627.916504  -1894.423340  -20375.00000     48.124100
    6041           0       627.916504  -1894.423340  -20625.00000     45.972099
    6042           0       627.916504  -1894.423340  -20875.00000     43.793640
    6043           0       627.916504  -1894.423340  -21125.00000     41.586250
    6044           0       627.916504  -1894.423340  -21375.00000     39.364124
    6045           0       627.916504  -1894.423340  -21625.00000     37.121174
    6046           0       627.916504  -1894.423340  -21875.00000     34.879547
    6047           0       627.916504  -1894.423340  -22125.00000     32.623344
    6048           0       627.916504  -1894.423340  -22375.00000     30.389236
    6049           0       627.916504  -1894.423340  -22625.00000     28.141556
    6050           0       627.916565  -1894.423340  -22875.00000     25.945887
    6051           0       627.916565  -1894.423340  -23125.00000     23.729456
    6052           0       627.916565  -1894.423340  -23375.00000     21.615789
    6053           0       627.916565  -1894.423340  -23625.00000     19.462646
    6054           0       627.916565  -1894.423340  -23875.00000     17.507925
    6055           0       627.916565  -1894.423340  -24125.00000     15.478777
    6056           0       627.916565  -1894.423340  -24375.00000     13.833108
    6057           0       627.916565  -1894.423340  -24625.00000     12.062366
    6058           0       627.916565  -1894.423340  -24875.00000     11.011802
    6059           0       627.916565  -1894.423340  -25125.00000      9.793867
    6060           0       627.916565  -1894.423340  -25375.00000      9.713230
    6061           0       627.916565  -1894.423340  -25625.00000      9.438835
    6062           0       627.916565  -1894.423340  -25875.00000      9.364673
    6063           0       736.700439  -1854.829224  -13625.00000     88.483925
    6064           0       736.700439  -1854.829224  -13875.00000     92.552223
    6065           0       736.700439  -1854.829224  -14125.00000     90.020584
    6066           0       736.700439  -1854.829224  -14375.00000     88.612442
    6067           0       736.700439  -1854.829224  -14625.00000     86.937645
    6068           0       736.700439  -1854.829224  -14875.00000     85.573685
    6069           0       736.700439  -1854.829224  -15125.00000     83.993401
    6070           0       736.700439  -1854.829224  -15375.00000     82.578262
    6071           0       736.700439  -1854.829224  -15625.00000     81.084084
    6072           0       736.700439  -1854.829224  -15875.00000     79.654800
    6073           0       736.700439  -1854.829224  -16125.00000     78.199593
    6074           0       736.700439  -1854.829224  -16375.00000     76.767845
    6075           0       736.700439  -1854.829224  -16625.00000     75.325790
    6076           0       736.700439  -1854.829224  -16875.00000     73.885216
    6077           0       736.700439  -1854.829224  -17125.00000     72.434547
    6078           0       736.700439  -1854.829224  -17375.00000     70.969910
    6079           0       736.700439  -1854.829224  -17625.00000     69.487122
    6080           0       736.700439  -1854.829224  -17875.00000     67.976456
    6081           0       736.700439  -1854.829224  -18125.00000     66.435097
    6082           0       736.700439  -1854.829224  -18375.00000     64.852066
    6083           0       736.700439  -1854.829224  -18625.00000     63.224293
    6084           0       736.700439  -1854.829224  -18875.00000     61.542294
    6085           0       736.700439  -1854.829224  -19125.00000     59.803043
    6086           0       736.700439  -1854.829224  -19375.00000     58.000374
    6087           0       736.700439  -1854.829224  -19625.00000     56.132137
    6088           0       736.700439  -1854.829224  -19875.00000     54.196800
    6089           0       736.700439  -1854.829224  -20125.00000     52.193584
    6090           0       736.700439  -1854.829224  -20375.00000     50.126347
    6091           0       736.700439  -1854.829224  -20625.00000     47.995384
    6092           0       736.700439  -1854.829224  -20875.00000     45.810368
    6093           0       736.700439  -1854.829224  -21125.00000     43.571301
    6094           0       736.700439  -1854.829224  -21375.00000     41.293957
    6095           0       736.700439  -1854.829224  -21625.00000     38.975746
    6096           0       736.700439  -1854.829224  -21875.00000     36.639175
    6097           0       736.700439  -1854.829224  -22125.00000     34.276180
    6098           0       736.700439  -1854.829224  -22375.00000     31.917786
    6099           0       736.700439  -1854.829224  -22625.00000     29.547956
    6100           0       736.700439  -1854.829224  -22875.00000     27.209682
    6101           0       736.700439  -1854.829224  -23125.00000     24.879381
    6102           0       736.700439  -1854.829224  -23375.00000     22.615772
    6103           0       736.700439  -1854.829224  -23625.00000     20.397949
    6104           0       736.700439  -1854.829224  -23875.00000     18.296680
    6105           0       736.700439  -1854.829224  -24125.00000     16.334812
    6106           0       736.700439  -1854.829224  -24375.00000     14.554830
    6107           0       736.700439  -1854.829224  -24625.00000     13.151423
    6108           0       736.700439  -1854.829224  -24875.00000     11.955389
    6109           0       736.700439  -1854.829224  -25125.00000     11.634068
    6110           0       736.700439  -1854.829224  -25375.00000     11.376315
    6111           0       736.700439  -1854.829224  -25625.00000     11.903831
    6112           0       736.700439  -1854.829224  -25875.00000     14.418186
    6113           0       842.020264  -1805.717773  -13625.00000     76.677177
    6114           0       842.020264  -1805.717773  -13875.00000     88.355118
    6115           0       842.020264  -1805.717773  -14125.00000     81.290924
    6116           0       842.020264  -1805.717773  -14375.00000     81.285133
    6117           0       842.020264  -1805.717773  -14625.00000     80.246796
    6118           0       842.020264  -1805.717773  -14875.00000     79.060745
    6119           0       842.020264  -1805.717773  -15125.00000     78.069084
    6120           0       842.020264  -1805.717773  -15375.00000     77.023933
    6121           0       842.020264  -1805.717773  -15625.00000     76.026245
    6122           0       842.020264  -1805.717773  -15875.00000     75.020569
    6123           0       842.020264  -1805.717773  -16125.00000     74.039055
    6124           0       842.020264  -1805.717773  -16375.00000     73.048073
    6125           0       842.020264  -1805.717773  -16625.00000     72.063316
    6126           0       842.020264  -1805.717773  -16875.00000     71.061668
    6127           0       842.020264  -1805.717773  -17125.00000     70.046379
    6128           0       842.020264  -1805.717773  -17375.00000     69.000557
    6129           0       842.020264  -1805.717773  -17625.00000     67.919975
    6130           0       842.020264  -1805.717773  -17875.00000     66.791023
    6131           0       842.020264  -1805.717773  -18125.00000     65.606232
    6132           0       842.020264  -1805.717773  -18375.00000     64.354088
    6133           0       842.020264  -1805.717773  -18625.00000     63.026966
    6134           0       842.020264  -1805.717773  -18875.00000     61.615330
    6135           0       842.020264  -1805.717773  -19125.00000     60.113708
    6136           0       842.020264  -1805.717773  -19375.00000     58.514797
    6137           0       842.020264  -1805.717773  -19625.00000     56.817116
    6138           0       842.020264  -1805.717773  -19875.00000     55.015656
    6139           0       842.020264  -1805.717773  -20125.00000     53.114555
    6140           0       842.020264  -1805.717773  -20375.00000     51.110657
    6141           0       842.020264  -1805.717773  -20625.00000     49.015278
    6142           0       842.020264  -1805.717773  -20875.00000     46.825630
    6143           0       842.020264  -1805.717773  -21125.00000     44.562145
    6144           0       842.020264  -1805.717773  -21375.00000     42.219398
    6145           0       842.020264  -1805.717773  -21625.00000     39.829788
    6146           0       842.020264  -1805.717773  -21875.00000     37.380135
    6147           0       842.020264  -1805.717773  -22125.00000     34.919952
    6148           0       842.020264  -1805.717773  -22375.00000     32.420311
    6149           0       842.020264  -1805.717773  -22625.00000     29.957701
    6150           0       842.020264  -1805.717773  -22875.00000     27.476114
    6151           0       842.020264  -1805.717773  -23125.00000     25.097198
    6152           0       842.020264  -1805.717773  -23375.00000     22.724073
    6153           0       842.020264  -1805.717773  -23625.00000     20.553600
    6154           0       842.020264  -1805.717773  -23875.00000     18.437582
    6155           0       842.020264  -1805.717773  -24125.00000     16.683319
    6156           0       842.020264  -1805.717773  -24375.00000     15.104547
    6157           0       842.020264  -1805.717773  -24625.00000     14.090370
    6158           0       842.020264  -1805.717773  -24875.00000     13.503057
    6159           0       842.020264  -1805.717773  -25125.00000     13.469524
    6160           0       842.020264  -1805.717773  -25375.00000     14.232009
    6161           0       842.020264  -1805.717773  -25625.00000     15.225476
    6162           0       842.020264  -1805.717773  -25875.00000     15.646711
    6163           0       947.340210  -1756.606201  -13625.00000     71.028107
    6164           0       947.340210  -1756.606201  -13875.00000     79.940071
    6165           0       947.340210  -1756.606201  -14125.00000     76.479912
    6166           0       947.340210  -1756.606201  -14375.00000     75.856689
    6167           0       947.340210  -1756.606201  -14625.00000     75.405457
    6168           0       947.340210  -1756.606201  -14875.00000     74.654160
    6169           0       947.340210  -1756.606201  -15125.00000     74.100456
    6170           0       947.340210  -1756.606201  -15375.00000     73.502724
    6171           0       947.340210  -1756.606201  -15625.00000     72.965149
    6172           0       947.340210  -1756.606201  -15875.00000     72.428627
    6173           0       947.340088  -1756.606201  -16125.00000     71.919083
    6174           0       947.340088  -1756.606201  -16375.00000     71.415863
    6175           0       947.340088  -1756.606201  -16625.00000     70.917694
    6176           0       947.340088  -1756.606201  -16875.00000     70.416405
    6177           0       947.340088  -1756.606201  -17125.00000     69.898636
    6178           0       947.340088  -1756.606201  -17375.00000     69.357330
    6179           0       947.340088  -1756.606201  -17625.00000     68.774071
    6180           0       947.340088  -1756.606445  -17875.00000     68.139671
    6181           0       947.340088  -1756.606445  -18125.00000     67.434204
    6182           0       947.340088  -1756.606445  -18375.00000     66.647079
    6183           0       947.340088  -1756.606445  -18625.00000     65.759308
    6184           0       947.340088  -1756.606445  -18875.00000     64.760986
    6185           0       947.340088  -1756.606445  -19125.00000     63.636013
    6186           0       947.340088  -1756.606445  -19375.00000     62.377708
    6187           0       947.340088  -1756.606445  -19625.00000     60.974236
    6188           0       947.340088  -1756.606445  -19875.00000     59.424599
    6189           0       947.340088  -1756.606445  -20125.00000     57.721909
    6190           0       947.340088  -1756.606445  -20375.00000     55.873096
    6191           0       947.340088  -1756.606445  -20625.00000     53.875805
    6192           0       947.340088  -1756.606445  -20875.00000     51.746933
    6193           0       947.340088  -1756.606445  -21125.00000     49.486614
    6194           0       947.340088  -1756.606445  -21375.00000     47.123978
    6195           0       947.340088  -1756.606445  -21625.00000     44.657150
    6196           0       947.340088  -1756.606445  -21875.00000     42.130875
    6197           0       947.340088  -1756.606445  -22125.00000     39.533352
    6198           0       947.340088  -1756.606445  -22375.00000     36.931736
    6199           0       947.340088  -1756.606445  -22625.00000     34.291538
    6200           0       947.340088  -1756.606445  -22875.00000     31.717243
    6201           0       947.340088  -1756.606445  -23125.00000     29.132126
    6202           0       947.340088  -1756.606445  -23375.00000     26.709654
    6203           0       947.340088  -1756.606445  -23625.00000     24.300661
    6204           0       947.340088  -1756.606445  -23875.00000     22.208286
    6205           0       947.340088  -1756.606445  -24125.00000     20.161377
    6206           0       947.340088  -1756.606445  -24375.00000     18.683954
    6207           0       947.340088  -1756.606445  -24625.00000     17.298740
    6208           0       947.340088  -1756.606445  -24875.00000     16.812042
    6209           0       947.340088  -1756.606445  -25125.00000     16.437449
    6210           0       947.340088  -1756.606445  -25375.00000     16.992462
    6211           0       947.340088  -1756.606445  -25625.00000     18.239717
    6212           0       947.340088  -1756.606445  -25875.00000     17.506157
    6213           0      1047.595947  -1698.723511  -13625.00000     70.667595
    6214           0      1047.595947  -1698.723511  -13875.00000     73.232346
    6215           0      1047.595947  -1698.723511  -14125.00000     72.733437
    6216           0      1047.595947  -1698.723511  -14375.00000     71.843994
    6217           0      1047.595947  -1698.723511  -14625.00000     71.462730
    6218           0      1047.595947  -1698.723511  -14875.00000     70.991280
    6219           0      1047.595947  -1698.723511  -15125.00000     70.596123
    6220           0      1047.595947  -1698.723511  -15375.00000     70.216713
    6221           0      1047.595947  -1698.723511  -15625.00000     69.906929
    6222           0      1047.595947  -1698.723511  -15875.00000     69.604172
    6223           0      1047.595947  -1698.723511  -16125.00000     69.359238
    6224           0      1047.595947  -1698.723511  -16375.00000     69.118393
    6225           0      1047.595947  -1698.723511  -16625.00000     68.915611
    6226           0      1047.595947  -1698.723511  -16875.00000     68.706566
    6227           0      1047.595947  -1698.723511  -17125.00000     68.510323
    6228           0      1047.595947  -1698.723511  -17375.00000     68.287758
    6229           0      1047.595947  -1698.723511  -17625.00000     68.045502
    6230           0      1047.595947  -1698.723511  -17875.00000     67.747917
    6231           0      1047.595947  -1698.723511  -18125.00000     67.392273
    6232           0      1047.595947  -1698.723511  -18375.00000     66.946594
    6233           0      1047.595947  -1698.723511  -18625.00000     66.402718
    6234           0      1047.595947  -1698.723511  -18875.00000     65.733727
    6235           0      1047.595947  -1698.723511  -19125.00000     64.930008
    6236           0      1047.595947  -1698.723511  -19375.00000     63.971573
    6237           0      1047.595947  -1698.723511  -19625.00000     62.850891
    6238           0      1047.595947  -1698.723511  -19875.00000     61.556587
    6239           0      1047.595947  -1698.723511  -20125.00000     60.085865
    6240           0      1047.595947  -1698.723511  -20375.00000     58.437164
    6241           0      1047.595947  -1698.723511  -20625.00000     56.613964
    6242           0      1047.595947  -1698.723511  -20875.00000     54.625038
    6243           0      1047.595947  -1698.723511  -21125.00000     52.480511
    6244           0      1047.595947  -1698.723511  -21375.00000     50.199242
    6245           0      1047.595947  -1698.723511  -21625.00000     47.797195
    6246           0      1047.595947  -1698.723511  -21875.00000     45.302101
    6247           0      1047.595947  -1698.723511  -22125.00000     42.734322
    6248           0      1047.595947  -1698.723511  -22375.00000     40.128105
    6249           0      1047.595947  -1698.723511  -22625.00000     37.507629
    6250           0      1047.595947  -1698.723511  -22875.00000     34.909866
    6251           0      1047.595947  -1698.723511  -23125.00000     32.367268
    6252           0      1047.595947  -1698.723511  -23375.00000     29.911877
    6253           0      1047.595947  -1698.723511  -23625.00000     27.603937
    6254           0      1047.595947  -1698.723511  -23875.00000     25.448086
    6255           0      1047.595947  -1698.723511  -24125.00000     23.588150
    6256           0      1047.595947  -1698.723511  -24375.00000     21.925207
    6257           0      1047.595947  -1698.723511  -24625.00000     20.816639
    6258           0      1047.595947  -1698.723511  -24875.00000     19.839897
    6259           0      1047.595947  -1698.723511  -25125.00000     19.826763
    6260           0      1047.595947  -1698.723511  -25375.00000     19.649681
    6261           0      1047.595947  -1698.723511  -25625.00000     20.365665
    6262           0      1047.595947  -1698.723511  -25875.00000     22.690016
    6263           0      1142.787720  -1632.069580  -13625.00000     64.830292
    6264           0      1142.787720  -1632.069580  -13875.00000     74.042953
    6265           0      1142.787720  -1632.069580  -14125.00000     68.759918
    6266           0      1142.787720  -1632.069580  -14375.00000     68.928154
    6267           0      1142.787720  -1632.069580  -14625.00000     68.338303
    6268           0      1142.787720  -1632.069580  -14875.00000     67.700294
    6269           0      1142.787720  -1632.069580  -15125.00000     67.185989
    6270           0      1142.787720  -1632.069580  -15375.00000     66.735413
    6271           0      1142.787720  -1632.069580  -15625.00000     66.308098
    6272           0      1142.787720  -1632.069580  -15875.00000     65.967110
    6273           0      1142.787720  -1632.069580  -16125.00000     65.656441
    6274           0      1142.787720  -1632.069580  -16375.00000     65.417221
    6275           0      1142.787720  -1632.069580  -16625.00000     65.206902
    6276           0      1142.787720  -1632.069580  -16875.00000     65.048775
    6277           0      1142.787720  -1632.069580  -17125.00000     64.904724
    6278           0      1142.787720  -1632.069580  -17375.00000     64.783920
    6279           0      1142.787720  -1632.069580  -17625.00000     64.649979
    6280           0      1142.787720  -1632.069580  -17875.00000     64.500275
    6281           0      1142.787720  -1632.069580  -18125.00000     64.300201
    6282           0      1142.787720  -1632.069580  -18375.00000     64.039024
    6283           0      1142.787720  -1632.069580  -18625.00000     63.685600
    6284           0      1142.787720  -1632.069580  -18875.00000     63.225456
    6285           0      1142.787720  -1632.069580  -19125.00000     62.633339
    6286           0      1142.787720  -1632.069580  -19375.00000     61.895020
    6287           0      1142.787842  -1632.069580  -19625.00000     60.993465
    6288           0      1142.787842  -1632.069580  -19875.00000     59.917599
    6289           0      1142.787842  -1632.069580  -20125.00000     58.660595
    6290           0      1142.787842  -1632.069580  -20375.00000     57.216263
    6291           0      1142.787842  -1632.069580  -20625.00000     55.589737
    6292           0      1142.787842  -1632.069580  -20875.00000     53.780209
    6293           0      1142.787842  -1632.069580  -21125.00000     51.806618
    6294           0      1142.787842  -1632.069580  -21375.00000     49.672642
    6295           0      1142.787842  -1632.069580  -21625.00000     47.413326
    6296           0      1142.787842  -1632.069580  -21875.00000     45.034100
    6297           0      1142.787842  -1632.069580  -22125.00000     42.589073
    6298           0      1142.787842  -1632.069580  -22375.00000     40.080135
    6299           0      1142.787842  -1632.069580  -22625.00000     37.584686
    6300           0      1142.787842  -1632.069580  -22875.00000     35.092281
    6301           0      1142.787842  -1632.069580  -23125.00000     32.709911
    6302           0      1142.787842  -1632.069580  -23375.00000     30.402426
    6303           0      1142.787842  -1632.069580  -23625.00000     28.315237
    6304           0      1142.787842  -1632.069580  -23875.00000     26.374889
    6305           0      1142.787842  -1632.069580  -24125.00000     24.771711
    6306           0      1142.787842  -1632.069580  -24375.00000     23.388548
    6307           0      1142.787842  -1632.069580  -24625.00000     22.440229
    6308           0      1142.787842  -1632.069580  -24875.00000     21.780125
    6309           0      1142.787842  -1632.069580  -25125.00000     21.598085
    6310           0      1142.787842  -1632.069580  -25375.00000     21.654028
    6311           0      1142.787842  -1632.069580  -25625.00000     22.351347
    6312           0      1142.787720  -1632.069580  -25875.00000     22.447395
    6313           0      1237.979370  -1565.415527  -13625.00000     64.112267
    6314           0      1237.979370  -1565.415527  -13875.00000     71.448143
    6315           0      1237.979370  -1565.415527  -14125.00000     68.307587
    6316           0      1237.979370  -1565.415527  -14375.00000     67.741249
    6317           0      1237.979370  -1565.415527  -14625.00000     67.186531
    6318           0      1237.979370  -1565.415527  -14875.00000     66.551559
    6319           0      1237.979370  -1565.415527  -15125.00000     66.092751
    6320           0      1237.979370  -1565.415527  -15375.00000     65.690910
    6321           0      1237.979370  -1565.415527  -15625.00000     65.423958
    6322           0      1237.979370  -1565.415527  -15875.00000     65.241844
    6323           0      1237.979370  -1565.415527  -16125.00000     65.198349
    6324           0      1237.979370  -1565.415527  -16375.00000     65.248497
    6325           0      1237.979370  -1565.415527  -16625.00000     65.422913
    6326           0      1237.979370  -1565.415527  -16875.00000     65.678444
    6327           0      1237.979370  -1565.415527  -17125.00000     66.021561
    6328           0      1237.979370  -1565.415527  -17375.00000     66.408142
    6329           0      1237.979370  -1565.415527  -17625.00000     66.825790
    6330           0      1237.979370  -1565.415527  -17875.00000     67.230453
    6331           0      1237.979370  -1565.415527  -18125.00000     67.598648
    6332           0      1237.979370  -1565.415527  -18375.00000     67.889854
    6333           0      1237.979370  -1565.415527  -18625.00000     68.077049
    6334           0      1237.979370  -1565.415527  -18875.00000     68.126732
    6335           0      1237.979370  -1565.415527  -19125.00000     68.013924
    6336           0      1237.979370  -1565.415527  -19375.00000     67.714470
    6337           0      1237.979370  -1565.415527  -19625.00000     67.208649
    6338           0      1237.979492  -1565.415527  -19875.00000     66.483147
    6339           0      1237.979492  -1565.415527  -20125.00000     65.524940
    6340           0      1237.979492  -1565.415527  -20375.00000     64.332848
    6341           0      1237.979492  -1565.415527  -20625.00000     62.901066
    6342           0      1237.979492  -1565.415527  -20875.00000     61.242325
    6343           0      1237.979492  -1565.415527  -21125.00000     59.357670
    6344           0      1237.979492  -1565.415527  -21375.00000     57.276463
    6345           0      1237.979492  -1565.415527  -21625.00000     55.004837
    6346           0      1237.979492  -1565.415527  -21875.00000     52.592453
    6347           0      1237.979492  -1565.415527  -22125.00000     50.045834
    6348           0      1237.979492  -1565.415527  -22375.00000     47.439598
    6349           0      1237.979492  -1565.415527  -22625.00000     44.770191
    6350           0      1237.979492  -1565.415527  -22875.00000     42.143589
    6351           0      1237.979492  -1565.415527  -23125.00000     39.526245
    6352           0      1237.979492  -1565.415527  -23375.00000     37.067410
    6353           0      1237.979492  -1565.415527  -23625.00000     34.669777
    6354           0      1237.979492  -1565.415527  -23875.00000     32.554100
    6355           0      1237.979492  -1565.415527  -24125.00000     30.505495
    6356           0      1237.979492  -1565.415527  -24375.00000     28.881210
    6357           0      1237.979492  -1565.415527  -24625.00000     27.257462
    6358           0      1237.979492  -1565.415527  -24875.00000     26.262499
    6359           0      1237.979492  -1565.415527  -25125.00000     25.072521
    6360           0      1237.979492  -1565.415527  -25375.00000     24.711901
    6361           0      1237.979492  -1565.415527  -25625.00000     24.567863
    6362           0      1237.979370  -1565.415527  -25875.00000     22.520176
    6363           0      1326.660889  -1491.003052  -13625.00000     70.415222
    6364           0      1326.660889  -1491.003052  -13875.00000     71.509323
    6365           0      1326.660889  -1491.003052  -14125.00000     70.703377
    6366           0      1326.660889  -1491.003052  -14375.00000     68.837280
    6367           0      1326.660889  -1491.003052  -14625.00000     67.978256
    6368           0      1326.660889  -1491.003052  -14875.00000     66.859482
    6369           0      1326.660889  -1491.003052  -15125.00000     66.001640
    6370           0      1326.660889  -1491.003052  -15375.00000     65.193176
    6371           0      1326.660889  -1491.003052  -15625.00000     64.576813
    6372           0      1326.660889  -1491.003052  -15875.00000     64.078552
    6373           0      1326.660889  -1491.003052  -16125.00000     63.762375
    6374           0      1326.660889  -1491.003052  -16375.00000     63.596081
    6375           0      1326.660889  -1491.003052  -16625.00000     63.597164
    6376           0      1326.660889  -1491.003052  -16875.00000     63.738010
    6377           0      1326.660889  -1491.003052  -17125.00000     64.008423
    6378           0      1326.660889  -1491.003052  -17375.00000     64.372444
    6379           0      1326.660889  -1491.003052  -17625.00000     64.804184
    6380           0      1326.660889  -1491.003052  -17875.00000     65.261703
    6381           0      1326.660889  -1491.003052  -18125.00000     65.713272
    6382           0      1326.660889  -1491.003052  -18375.00000     66.117508
    6383           0      1326.660889  -1491.003052  -18625.00000     66.444160
    6384           0      1326.660889  -1491.003052  -18875.00000     66.657501
    6385           0      1326.660889  -1491.003052  -19125.00000     66.732872
    6386           0      1326.660889  -1491.003052  -19375.00000     66.642632
    6387           0      1326.660889  -1491.003052  -19625.00000     66.369492
    6388           0      1326.660889  -1491.003052  -19875.00000     65.894432
    6389           0      1326.660889  -1491.003052  -20125.00000     65.208397
    6390           0      1326.660889  -1491.003052  -20375.00000     64.300896
    6391           0      1326.660889  -1491.003052  -20625.00000     63.172062
    6392           0      1326.660889  -1491.003052  -20875.00000     61.819881
    6393           0      1326.660889  -1491.003052  -21125.00000     60.255325
    6394           0      1326.660889  -1491.003052  -21375.00000     58.484787
    6395           0      1326.660889  -1491.003052  -21625.00000     56.532421
    6396           0      1326.660889  -1491.003052  -21875.00000     54.412205
    6397           0      1326.660889  -1491.003052  -22125.00000     52.164055
    6398           0      1326.660889  -1491.003052  -22375.00000     49.806358
    6399           0      1326.660889  -1491.003052  -22625.00000     47.396950
    6400           0      1326.660889  -1491.003052  -22875.00000     44.950806
    6401           0      1326.660889  -1491.003052  -23125.00000     42.545338
    6402           0      1326.660889  -1491.003052  -23375.00000     40.177071
    6403           0      1326.660889  -1491.003052  -23625.00000     37.946781
    6404           0      1326.660889  -1491.003052  -23875.00000     35.807133
    6405           0      1326.660889  -1491.003052  -24125.00000     33.897652
    6406           0      1326.660889  -1491.003052  -24375.00000     32.085026
    6407           0      1326.660889  -1491.003052  -24625.00000     30.585602
    6408           0      1326.660889  -1491.003052  -24875.00000     29.145668
    6409           0      1326.660889  -1491.003052  -25125.00000     28.079060
    6410           0      1326.661011  -1491.003052  -25375.00000     26.901531
    6411           0      1326.661011  -1491.002930  -25625.00000     26.739758
    6412           0      1326.661011  -1491.002930  -25875.00000     25.636734
    6413           0      1408.832275  -1408.831787  -13625.00000     71.741226
    6414           0      1408.832275  -1408.831787  -13875.00000     81.056557
    6415           0      1408.832275  -1408.831787  -14125.00000     73.924362
    6416           0      1408.832275  -1408.831787  -14375.00000     72.394234
    6417           0      1408.832275  -1408.831787  -14625.00000     70.541779
    6418           0      1408.832275  -1408.831787  -14875.00000     68.348351
    6419           0      1408.832275  -1408.831787  -15125.00000     66.558342
    6420           0      1408.832275  -1408.831787  -15375.00000     64.773582
    6421           0      1408.832275  -1408.831787  -15625.00000     63.194920
    6422           0      1408.832275  -1408.831787  -15875.00000     61.754414
    6423           0      1408.832275  -1408.831787  -16125.00000     60.515385
    6424           0      1408.832275  -1408.831787  -16375.00000     59.464390
    6425           0      1408.832275  -1408.831787  -16625.00000     58.615284
    6426           0      1408.832275  -1408.831787  -16875.00000     57.964588
    6427           0      1408.832275  -1408.831787  -17125.00000     57.493374
    6428           0      1408.832275  -1408.831787  -17375.00000     57.191639
    6429           0      1408.832275  -1408.831787  -17625.00000     57.022636
    6430           0      1408.832275  -1408.831787  -17875.00000     56.967617
    6431           0      1408.832275  -1408.831787  -18125.00000     56.984428
    6432           0      1408.832275  -1408.831787  -18375.00000     57.049767
    6433           0      1408.832275  -1408.831787  -18625.00000     57.124138
    6434           0      1408.832275  -1408.831787  -18875.00000     57.184139
    6435           0      1408.832031  -1408.831787  -19125.00000     57.196754
    6436           0      1408.832031  -1408.831787  -19375.00000     57.141148
    6437           0      1408.832031  -1408.831787  -19625.00000     56.991707
    6438           0      1408.832031  -1408.831787  -19875.00000     56.731495
    6439           0      1408.832031  -1408.831787  -20125.00000     56.342064
    6440           0      1408.832031  -1408.831787  -20375.00000     55.811195
    6441           0      1408.832031  -1408.831787  -20625.00000     55.127411
    6442           0      1408.832031  -1408.831787  -20875.00000     54.284245
    6443           0      1408.832031  -1408.831787  -21125.00000     53.277550
    6444           0      1408.832031  -1408.831787  -21375.00000     52.108253
    6445           0      1408.832031  -1408.831787  -21625.00000     50.780724
    6446           0      1408.832031  -1408.831787  -21875.00000     49.305374
    6447           0      1408.832031  -1408.831787  -22125.00000     47.696987
    6448           0      1408.832031  -1408.831787  -22375.00000     45.977299
    6449           0      1408.832031  -1408.831787  -22625.00000     44.173683
    6450           0      1408.832031  -1408.831787  -22875.00000     42.318325
    6451           0      1408.832031  -1408.831787  -23125.00000     40.453270
    6452           0      1408.832031  -1408.831787  -23375.00000     38.612183
    6453           0      1408.832031  -1408.831787  -23625.00000     36.854607
    6454           0      1408.832031  -1408.831787  -23875.00000     35.188812
    6455           0      1408.832031  -1408.831787  -24125.00000     33.704021
    6456           0      1408.832031  -1408.831787  -24375.00000     32.325191
    6457           0      1408.832031  -1408.831787  -24625.00000     31.222391
    6458           0      1408.832031  -1408.831787  -24875.00000     30.113235
    6459           0      1408.832031  -1408.831787  -25125.00000     29.518822
    6460           0      1408.832031  -1408.831787  -25375.00000     28.333467
    6461           0      1408.832153  -1408.831787  -25625.00000     28.591936
    6462           0      1408.832153  -1408.831787  -25875.00000     27.645809
    6463           0      1491.003296  -1326.660645  -13625.00000     79.877701
    6464           0      1491.003296  -1326.660645  -13875.00000     86.638924
    6465           0      1491.003296  -1326.660645  -14125.00000     80.402527
    6466           0      1491.003296  -1326.660645  -14375.00000     78.103218
    6467           0      1491.003296  -1326.660645  -14625.00000     75.027863
    6468           0      1491.003296  -1326.660645  -14875.00000     72.410637
    6469           0      1491.003296  -1326.660645  -15125.00000     69.769768
    6470           0      1491.003296  -1326.660645  -15375.00000     67.441597
    6471           0      1491.003296  -1326.660645  -15625.00000     65.262390
    6472           0      1491.003296  -1326.660645  -15875.00000     63.350941
    6473           0      1491.003296  -1326.660645  -16125.00000     61.687000
    6474           0      1491.003296  -1326.660645  -16375.00000     60.279575
    6475           0      1491.003296  -1326.660645  -16625.00000     59.145401
    6476           0      1491.003296  -1326.660645  -16875.00000     58.250072
    6477           0      1491.003296  -1326.660645  -17125.00000     57.602825
    6478           0      1491.003296  -1326.660645  -17375.00000     57.154541
    6479           0      1491.003296  -1326.660645  -17625.00000     56.898163
    6480           0      1491.003296  -1326.660645  -17875.00000     56.784012
    6481           0      1491.003296  -1326.660645  -18125.00000     56.792927
    6482           0      1491.003296  -1326.660645  -18375.00000     56.881046
    6483           0      1491.003296  -1326.660645  -18625.00000     57.023251
    6484           0      1491.003296  -1326.660645  -18875.00000     57.183304
    6485           0      1491.003296  -1326.660645  -19125.00000     57.334766
    6486           0      1491.003296  -1326.660645  -19375.00000     57.448662
    6487           0      1491.003296  -1326.660645  -19625.00000     57.499989
    6488           0      1491.003296  -1326.660645  -19875.00000     57.466167
    6489           0      1491.003296  -1326.660645  -20125.00000     57.325188
    6490           0      1491.003296  -1326.660645  -20375.00000     57.060303
    6491           0      1491.003296  -1326.660645  -20625.00000     56.653465
    6492           0      1491.003296  -1326.660645  -20875.00000     56.093979
    6493           0      1491.003296  -1326.660645  -21125.00000     55.368793
    6494           0      1491.003296  -1326.660645  -21375.00000     54.474739
    6495           0      1491.003296  -1326.660645  -21625.00000     53.405220
    6496           0      1491.003296  -1326.660645  -21875.00000     52.167961
    6497           0      1491.003296  -1326.660645  -22125.00000     50.764599
    6498           0      1491.003296  -1326.660645  -22375.00000     49.219498
    6499           0      1491.003296  -1326.660645  -22625.00000     47.543156
    6500           0      1491.003296  -1326.660645  -22875.00000     45.784496
    6501           0      1491.003296  -1326.660645  -23125.00000     43.957455
    6502           0      1491.003296  -1326.660645  -23375.00000     42.144611
    6503           0      1491.003296  -1326.660645  -23625.00000     40.342316
    6504           0      1491.003296  -1326.660645  -23875.00000     38.678650
    6505           0      1491.003296  -1326.660645  -24125.00000     37.083755
    6506           0      1491.003296  -1326.660645  -24375.00000     35.759274
    6507           0      1491.003296  -1326.660645  -24625.00000     34.488937
    6508           0      1491.003296  -1326.660645  -24875.00000     33.622608
    6509           0      1491.003296  -1326.660645  -25125.00000     32.636467
    6510           0      1491.003296  -1326.660645  -25375.00000     32.372913
    6511           0      1491.003296  -1326.660645  -25625.00000     31.483395
    6512           0      1491.003296  -1326.660645  -25875.00000     30.982517
    6513           0      1565.416016  -1237.979126  -13625.00000     94.124458
    6514           0      1565.416016  -1237.979126  -13875.00000     93.286697
    6515           0      1565.416016  -1237.979126  -14125.00000     88.870384
    6516           0      1565.416016  -1237.979126  -14375.00000     84.059372
    6517           0      1565.416016  -1237.979126  -14625.00000     80.010239
    6518           0      1565.416016  -1237.979126  -14875.00000     75.983330
    6519           0      1565.416016  -1237.979126  -15125.00000     72.070030
    6520           0      1565.416016  -1237.979126  -15375.00000     68.453232
    6521           0      1565.416016  -1237.979126  -15625.00000     64.981598
    6522           0      1565.416016  -1237.979126  -15875.00000     61.858753
    6523           0      1565.416016  -1237.979126  -16125.00000     58.957249
    6524           0      1565.416016  -1237.979126  -16375.00000     56.433868
    6525           0      1565.416016  -1237.979126  -16625.00000     54.196030
    6526           0      1565.416016  -1237.979126  -16875.00000     52.341114
    6527           0      1565.416016  -1237.979126  -17125.00000     50.804577
    6528           0      1565.416016  -1237.979126  -17375.00000     49.626598
    6529           0      1565.416016  -1237.979126  -17625.00000     48.755264
    6530           0      1565.416016  -1237.979126  -17875.00000     48.184849
    6531           0      1565.416016  -1237.979126  -18125.00000     47.865391
    6532           0      1565.416016  -1237.979126  -18375.00000     47.761620
    6533           0      1565.416016  -1237.979126  -18625.00000     47.824188
    6534           0      1565.416016  -1237.979126  -18875.00000     48.005486
    6535           0      1565.416016  -1237.979126  -19125.00000     48.260899
    6536           0      1565.416016  -1237.979126  -19375.00000     48.543556
    6537           0      1565.416016  -1237.979126  -19625.00000     48.817738
    6538           0      1565.416016  -1237.979126  -19875.00000     49.044277
    6539           0      1565.416016  -1237.979126  -20125.00000     49.198265
    6540           0      1565.416016  -1237.979126  -20375.00000     49.250324
    6541           0      1565.416016  -1237.979126  -20625.00000     49.186584
    6542           0      1565.416016  -1237.979126  -20875.00000     48.986893
    6543           0      1565.416016  -1237.979126  -21125.00000     48.648159
    6544           0      1565.416016  -1237.979126  -21375.00000     48.158043
    6545           0      1565.416016  -1237.979126  -21625.00000     47.524693
    6546           0      1565.416016  -1237.979126  -21875.00000     46.742237
    6547           0      1565.416016  -1237.979126  -22125.00000     45.832207
    6548           0      1565.416016  -1237.979126  -22375.00000     44.794254
    6549           0      1565.416016  -1237.979126  -22625.00000     43.667202
    6550           0      1565.416016  -1237.979126  -22875.00000     42.455364
    6551           0      1565.416016  -1237.979126  -23125.00000     41.218616
    6552           0      1565.416016  -1237.979126  -23375.00000     39.965176
    6553           0      1565.416016  -1237.979126  -23625.00000     38.773457
    6554           0      1565.416016  -1237.979126  -23875.00000     37.659828
    6555           0      1565.416016  -1237.979126  -24125.00000     36.699261
    6556           0      1565.416016  -1237.979126  -24375.00000     35.946083
    6557           0      1565.416016  -1237.979126  -24625.00000     35.376244
    6558           0      1565.416016  -1237.979126  -24875.00000     35.270069
    6559           0      1565.416016  -1237.979126  -25125.00000     35.060696
    6560           0      1565.416016  -1237.979126  -25375.00000     35.407608
    6561           0      1565.416016  -1237.979126  -25625.00000     37.972404
    6562           0      1565.416016  -1237.979126  -25875.00000     32.698414
    6563           0      1632.069946  -1142.787354  -13625.00000     98.234062
    6564           0      1632.069946  -1142.787354  -13875.00000    109.712120
    6565           0      1632.069946  -1142.787354  -14125.00000     96.426956
    6566           0      1632.069946  -1142.787354  -14375.00000     90.893234
    6567           0      1632.069946  -1142.787354  -14625.00000     85.467552
    6568           0      1632.069946  -1142.787354  -14875.00000     79.040489
    6569           0      1632.069946  -1142.787354  -15125.00000     73.576042
    6570           0      1632.069946  -1142.787354  -15375.00000     67.787636
    6571           0      1632.069946  -1142.787354  -15625.00000     62.534210
    6572           0      1632.069946  -1142.787354  -15875.00000     57.323528
    6573           0      1632.069946  -1142.787354  -16125.00000     52.589687
    6574           0      1632.069946  -1142.787354  -16375.00000     48.149155
    6575           0      1632.069946  -1142.787354  -16625.00000     44.248058
    6576           0      1632.069946  -1142.787354  -16875.00000     40.861950
    6577           0      1632.069946  -1142.787354  -17125.00000     38.124138
    6578           0      1632.069946  -1142.787354  -17375.00000     36.059322
    6579           0      1632.069946  -1142.787354  -17625.00000     34.690178
    6580           0      1632.069946  -1142.787354  -17875.00000     33.991138
    6581           0      1632.069946  -1142.787354  -18125.00000     33.866798
    6582           0      1632.069946  -1142.787354  -18375.00000     34.218021
    6583           0      1632.069946  -1142.787354  -18625.00000     34.893101
    6584           0      1632.069946  -1142.787354  -18875.00000     35.778988
    6585           0      1632.069946  -1142.787354  -19125.00000     36.743713
    6586           0      1632.069946  -1142.787354  -19375.00000     37.705791
    6587           0      1632.069946  -1142.787354  -19625.00000     38.577835
    6588           0      1632.069946  -1142.787354  -19875.00000     39.315632
    6589           0      1632.069946  -1142.787354  -20125.00000     39.869980
    6590           0      1632.069946  -1142.787354  -20375.00000     40.226280
    6591           0      1632.069946  -1142.787354  -20625.00000     40.362366
    6592           0      1632.069946  -1142.787354  -20875.00000     40.286518
    6593           0      1632.069946  -1142.787354  -21125.00000     39.995476
    6594           0      1632.069946  -1142.787354  -21375.00000     39.516827
    6595           0      1632.069946  -1142.787354  -21625.00000     38.861008
    6596           0      1632.069946  -1142.787354  -21875.00000     38.073486
    6597           0      1632.069946  -1142.787354  -22125.00000     37.174702
    6598           0      1632.069946  -1142.787354  -22375.00000     36.227127
    6599           0      1632.069946  -1142.787354  -22625.00000     35.257896
    6600           0      1632.069946  -1142.787354  -22875.00000     34.343899
    6601           0      1632.069946  -1142.787354  -23125.00000     33.516148
    6602           0      1632.069946  -1142.787354  -23375.00000     32.857685
    6603           0      1632.069946  -1142.787354  -23625.00000     32.404366
    6604           0      1632.069946  -1142.787354  -23875.00000     32.223869
    6605           0      1632.069946  -1142.787354  -24125.00000     32.371155
    6606           0      1632.069946  -1142.787354  -24375.00000     32.851643
    6607           0      1632.069946  -1142.787354  -24625.00000     33.775776
    6608           0      1632.069946  -1142.787354  -24875.00000     35.014030
    6609           0      1632.069946  -1142.787354  -25125.00000     36.882977
    6610           0      1632.069946  -1142.787354  -25375.00000     38.087219
    6611           0      1632.069946  -1142.787354  -25625.00000     43.596966
    6612           0      1632.069946  -1142.787354  -25875.00000     40.006954
    6613           0      1698.723877  -1047.595581  -13625.00000    113.106453
    6614           0      1698.723877  -1047.595581  -13875.00000    120.433586
    6615           0      1698.723877  -1047.595581  -14125.00000    106.831833
    6616           0      1698.723877  -1047.595581  -14375.00000    100.626442
    6617           0      1698.723877  -1047.595581  -14625.00000     92.350456
    6618           0      1698.723877  -1047.595581  -14875.00000     85.194153
    6619           0      1698.723877  -1047.595581  -15125.00000     77.687866
    6620           0      1698.723877  -1047.595581  -15375.00000     70.754814
    6621           0      1698.723877  -1047.595581  -15625.00000     63.885330
    6622           0      1698.723877  -1047.595581  -15875.00000     57.482632
    6623           0      1698.723877  -1047.595581  -16125.00000     51.513584
    6624           0      1698.723877  -1047.595581  -16375.00000     46.173676
    6625           0      1698.723877  -1047.595581  -16625.00000     41.665459
    6626           0      1698.723877  -1047.595581  -16875.00000     38.113274
    6627           0      1698.723877  -1047.595581  -17125.00000     35.751244
    6628           0      1698.723877  -1047.595581  -17375.00000     34.553028
    6629           0      1698.723877  -1047.595581  -17625.00000     34.522728
    6630           0      1698.723877  -1047.595581  -17875.00000     35.383492
    6631           0      1698.723877  -1047.595581  -18125.00000     36.919991
    6632           0      1698.723877  -1047.595581  -18375.00000     38.813789
    6633           0      1698.723877  -1047.595581  -18625.00000     40.866673
    6634           0      1698.723877  -1047.595581  -18875.00000     42.872532
    6635           0      1698.723877  -1047.595581  -19125.00000     44.717442
    6636           0      1698.723877  -1047.595581  -19375.00000     46.291451
    6637           0      1698.723877  -1047.595581  -19625.00000     47.540291
    6638           0      1698.723877  -1047.595581  -19875.00000     48.409470
    6639           0      1698.723877  -1047.595581  -20125.00000     48.881508
    6640           0      1698.723877  -1047.595581  -20375.00000     48.933224
    6641           0      1698.723877  -1047.595581  -20625.00000     48.573639
    6642           0      1698.723877  -1047.595581  -20875.00000     47.799858
    6643           0      1698.723877  -1047.595581  -21125.00000     46.645382
    6644           0      1698.723877  -1047.595581  -21375.00000     45.124397
    6645           0      1698.723877  -1047.595581  -21625.00000     43.298695
    6646           0      1698.723877  -1047.595581  -21875.00000     41.202110
    6647           0      1698.723877  -1047.595581  -22125.00000     38.934155
    6648           0      1698.723877  -1047.595581  -22375.00000     36.557098
    6649           0      1698.723877  -1047.595581  -22625.00000     34.223129
    6650           0      1698.723877  -1047.595581  -22875.00000     32.034805
    6651           0      1698.723877  -1047.595581  -23125.00000     30.206446
    6652           0      1698.723877  -1047.595581  -23375.00000     28.863926
    6653           0      1698.723877  -1047.595581  -23625.00000     28.238274
    6654           0      1698.723877  -1047.595581  -23875.00000     28.354305
    6655           0      1698.723877  -1047.595581  -24125.00000     29.360003
    6656           0      1698.723877  -1047.595581  -24375.00000     31.012579
    6657           0      1698.723877  -1047.595581  -24625.00000     33.518986
    6658           0      1698.723877  -1047.595581  -24875.00000     36.260277
    6659           0      1698.723877  -1047.595581  -25125.00000     40.028748
    6660           0      1698.723877  -1047.595581  -25375.00000     43.531715
    6661           0      1698.723877  -1047.595581  -25625.00000     48.331787
    6662           0      1698.723877  -1047.595581  -25875.00000     50.800182
    6663           0      1756.606689   -947.339722  -13625.00000    130.156677
    6664           0      1756.606689   -947.339722  -13875.00000    124.925888
    6665           0      1756.606689   -947.339722  -14125.00000    114.229630
    6666           0      1756.606689   -947.339722  -14375.00000    105.149086
    6667           0      1756.606689   -947.339722  -14625.00000     95.278618
    6668           0      1756.606689   -947.339722  -14875.00000     86.710052
    6669           0      1756.606689   -947.339722  -15125.00000     77.671028
    6670           0      1756.606689   -947.339722  -15375.00000     69.698624
    6671           0      1756.606689   -947.339722  -15625.00000     61.820293
    6672           0      1756.606689   -947.339722  -15875.00000     55.085785
    6673           0      1756.606689   -947.339722  -16125.00000     49.080078
    6674           0      1756.606689   -947.339722  -16375.00000     44.603714
    6675           0      1756.606689   -947.339722  -16625.00000     41.536327
    6676           0      1756.606689   -947.339722  -16875.00000     40.290371
    6677           0      1756.606689   -947.339722  -17125.00000     40.590591
    6678           0      1756.606689   -947.339722  -17375.00000     42.252949
    6679           0      1756.606689   -947.339722  -17625.00000     44.804691
    6680           0      1756.606689   -947.339722  -17875.00000     47.883045
    6681           0      1756.606689   -947.339722  -18125.00000     51.157478
    6682           0      1756.606689   -947.339722  -18375.00000     54.386093
    6683           0      1756.606689   -947.339722  -18625.00000     57.406273
    6684           0      1756.606689   -947.339722  -18875.00000     60.086506
    6685           0      1756.606689   -947.339722  -19125.00000     62.352959
    6686           0      1756.606689   -947.339722  -19375.00000     64.136963
    6687           0      1756.606689   -947.339722  -19625.00000     65.404907
    6688           0      1756.606689   -947.339722  -19875.00000     66.124603
    6689           0      1756.606689   -947.339722  -20125.00000     66.280525
    6690           0      1756.606689   -947.339722  -20375.00000     65.865540
    6691           0      1756.606689   -947.339722  -20625.00000     64.872658
    6692           0      1756.606689   -947.339722  -20875.00000     63.316967
    6693           0      1756.606689   -947.339722  -21125.00000     61.196297
    6694           0      1756.606689   -947.339722  -21375.00000     58.551304
    6695           0      1756.606689   -947.339722  -21625.00000     55.384777
    6696           0      1756.606689   -947.339722  -21875.00000     51.773369
    6697           0      1756.606689   -947.339722  -22125.00000     47.730228
    6698           0      1756.606689   -947.339722  -22375.00000     43.391495
    6699           0      1756.606689   -947.339722  -22625.00000     38.801003
    6700           0      1756.606689   -947.339722  -22875.00000     34.211529
    6701           0      1756.606689   -947.339722  -23125.00000     29.767118
    6702           0      1756.606689   -947.339722  -23375.00000     25.980083
    6703           0      1756.606689   -947.339722  -23625.00000     23.235115
    6704           0      1756.606689   -947.339722  -23875.00000     22.318634
    6705           0      1756.606689   -947.339722  -24125.00000     23.323442
    6706           0      1756.606689   -947.339722  -24375.00000     26.270002
    6707           0      1756.606689   -947.339722  -24625.00000     30.326883
    6708           0      1756.606689   -947.339722  -24875.00000     35.456081
    6709           0      1756.606689   -947.339722  -25125.00000     40.838871
    6710           0      1756.606689   -947.339722  -25375.00000     46.580704
    6711           0      1756.606689   -947.339722  -25625.00000     55.887398
    6712           0      1756.606689   -947.339722  -25875.00000     53.090084
    6713           0      1805.718140   -842.019836  -13625.00000    124.233421
    6714           0      1805.718140   -842.019836  -13875.00000    135.759186
    6715           0      1805.718140   -842.019836  -14125.00000    115.791351
    6716           0      1805.718140   -842.019836  -14375.00000    105.544571
    6717           0      1805.718140   -842.019836  -14625.00000     95.717720
    6718           0      1805.718140   -842.019836  -14875.00000     85.033119
    6719           0      1805.718140   -842.019836  -15125.00000     76.338860
    6720           0      1805.718140   -842.019836  -15375.00000     68.071198
    6721           0      1805.718140   -842.019836  -15625.00000     61.836384
    6722           0      1805.718140   -842.019836  -15875.00000     57.164337
    6723           0      1805.718140   -842.019836  -16125.00000     54.785366
    6724           0      1805.718140   -842.019836  -16375.00000     54.391380
    6725           0      1805.718140   -842.019836  -16625.00000     55.852669
    6726           0      1805.718140   -842.019836  -16875.00000     58.678307
    6727           0      1805.718140   -842.019836  -17125.00000     62.380814
    6728           0      1805.718140   -842.019836  -17375.00000     66.585487
    6729           0      1805.718140   -842.019836  -17625.00000     70.920563
    6730           0      1805.718140   -842.019836  -17875.00000     75.204811
    6731           0      1805.718140   -842.019836  -18125.00000     79.223701
    6732           0      1805.718140   -842.019836  -18375.00000     82.904678
    6733           0      1805.718140   -842.019836  -18625.00000     86.129234
    6734           0      1805.718140   -842.019836  -18875.00000     88.871773
    6735           0      1805.718140   -842.019836  -19125.00000     91.066307
    6736           0      1805.718140   -842.019836  -19375.00000     92.705063
    6737           0      1805.718140   -842.019836  -19625.00000     93.751404
    6738           0      1805.718140   -842.019836  -19875.00000     94.202675
    6739           0      1805.718140   -842.019836  -20125.00000     94.040092
    6740           0      1805.718140   -842.019836  -20375.00000     93.260658
    6741           0      1805.718140   -842.019836  -20625.00000     91.858757
    6742           0      1805.718140   -842.019836  -20875.00000     89.828941
    6743           0      1805.718140   -842.019836  -21125.00000     87.179024
    6744           0      1805.718140   -842.019836  -21375.00000     83.900658
    6745           0      1805.718140   -842.019775  -21625.00000     80.019989
    6746           0      1805.718140   -842.019775  -21875.00000     75.527069
    6747           0      1805.718140   -842.019775  -22125.00000     70.477623
    6748           0      1805.718140   -842.019775  -22375.00000     64.864731
    6749           0      1805.718140   -842.019775  -22625.00000     58.796974
    6750           0      1805.718140   -842.019775  -22875.00000     52.287895
    6751           0      1805.718140   -842.019775  -23125.00000     45.555008
    6752           0      1805.718140   -842.019775  -23375.00000     38.709991
    6753           0      1805.718140   -842.019775  -23625.00000     32.259708
    6754           0      1805.718140   -842.019775  -23875.00000     26.775450
    6755           0      1805.718140   -842.019775  -24125.00000     23.527874
    6756           0      1805.718140   -842.019775  -24375.00000     23.753548
    6757           0      1805.718140   -842.019775  -24625.00000     27.279133
    6758           0      1805.718140   -842.019775  -24875.00000     33.544739
    6759           0      1805.718140   -842.019775  -25125.00000     40.569424
    6760           0      1805.718140   -842.019775  -25375.00000     47.729122
    6761           0      1805.718140   -842.019775  -25625.00000     61.658695
    6762           0      1805.718140   -842.019836  -25875.00000     55.942188
    6763           0      1854.829468   -736.699951  -13625.00000    131.986435
    6764           0      1854.829468   -736.699951  -13875.00000    141.076584
    6765           0      1854.829468   -736.699951  -14125.00000    120.377289
    6766           0      1854.829468   -736.699951  -14375.00000    110.219582
    6767           0      1854.829468   -736.699951  -14625.00000     98.614784
    6768           0      1854.829468   -736.699951  -14875.00000     88.539543
    6769           0      1854.829468   -736.699951  -15125.00000     79.898773
    6770           0      1854.829468   -736.699951  -15375.00000     73.420219
    6771           0      1854.829468   -736.699951  -15625.00000     69.596825
    6772           0      1854.829468   -736.699951  -15875.00000     68.381546
    6773           0      1854.829468   -736.699951  -16125.00000     69.781349
    6774           0      1854.829468   -736.699951  -16375.00000     72.961510
    6775           0      1854.829468   -736.699951  -16625.00000     77.550011
    6776           0      1854.829468   -736.699951  -16875.00000     82.749794
    6777           0      1854.829468   -736.699951  -17125.00000     88.315842
    6778           0      1854.829468   -736.699951  -17375.00000     93.785393
    6779           0      1854.829468   -736.699951  -17625.00000     99.069984
    6780           0      1854.829468   -736.699951  -17875.00000    103.932396
    6781           0      1854.829468   -736.699951  -18125.00000    108.357452
    6782           0      1854.829468   -736.699951  -18375.00000    112.224419
    6783           0      1854.829468   -736.699951  -18625.00000    115.543900
    6784           0      1854.829468   -736.699951  -18875.00000    118.252449
    6785           0      1854.829468   -736.699951  -19125.00000    120.365936
    6786           0      1854.829468   -736.699951  -19375.00000    121.848465
    6787           0      1854.829468   -736.699951  -19625.00000    122.712593
    6788           0      1854.829468   -736.699951  -19875.00000    122.934944
    6789           0      1854.829468   -736.699951  -20125.00000    122.521339
    6790           0      1854.829468   -736.699951  -20375.00000    121.453606
    6791           0      1854.829468   -736.699951  -20625.00000    119.729889
    6792           0      1854.829468   -736.699951  -20875.00000    117.334511
    6793           0      1854.829468   -736.699951  -21125.00000    114.258469
    6794           0      1854.829468   -736.699951  -21375.00000    110.489571
    6795           0      1854.829468   -736.699951  -21625.00000    106.013596
    6796           0      1854.829468   -736.699951  -21875.00000    100.826973
    6797           0      1854.829468   -736.699951  -22125.00000     94.914215
    6798           0      1854.829468   -736.699951  -22375.00000     88.292068
    6799           0      1854.829468   -736.699951  -22625.00000     80.953239
    6800           0      1854.829468   -736.699951  -22875.00000     72.960991
    6801           0      1854.829468   -736.699890  -23125.00000     64.346649
    6802           0      1854.829468   -736.699890  -23375.00000     55.289505
    6803           0      1854.829468   -736.699890  -23625.00000     45.993801
    6804           0      1854.829468   -736.699890  -23875.00000     37.016487
    6805           0      1854.829468   -736.699890  -24125.00000     29.477293
    6806           0      1854.829468   -736.699890  -24375.00000     25.272444
    6807           0      1854.829468   -736.699890  -24625.00000     27.108953
    6808           0      1854.829468   -736.699890  -24875.00000     32.971958
    6809           0      1854.829468   -736.699890  -25125.00000     42.701637
    6810           0      1854.829468   -736.699890  -25375.00000     51.050861
    6811           0      1854.829468   -736.699890  -25625.00000     64.849220
    6812           0      1854.829468   -736.699951  -25875.00000     67.264511
    6813           0      1894.423584   -627.916016  -13625.00000    140.435303
    6814           0      1894.423584   -627.916016  -13875.00000    130.040665
    6815           0      1894.423584   -627.916016  -14125.00000    117.466934
    6816           0      1894.423584   -627.916016  -14375.00000    108.711975
    6817           0      1894.423584   -627.916016  -14625.00000     98.431374
    6818           0      1894.423584   -627.916016  -14875.00000     92.235359
    6819           0      1894.423584   -627.916016  -15125.00000     86.730873
    6820           0      1894.423584   -627.916016  -15375.00000     84.774147
    6821           0      1894.423584   -627.916016  -15625.00000     84.609665
    6822           0      1894.423584   -627.916016  -15875.00000     87.000702
    6823           0      1894.423584   -627.916016  -16125.00000     90.654427
    6824           0      1894.423584   -627.916016  -16375.00000     95.485336
    6825           0      1894.423584   -627.916016  -16625.00000    100.693779
    6826           0      1894.423584   -627.916016  -16875.00000    106.122314
    6827           0      1894.423584   -627.916016  -17125.00000    111.372452
    6828           0      1894.423584   -627.916016  -17375.00000    116.370193
    6829           0      1894.423584   -627.916016  -17625.00000    120.935593
    6830           0      1894.423584   -627.916016  -17875.00000    125.053299
    6831           0      1894.423584   -627.916016  -18125.00000    128.646027
    6832           0      1894.423584   -627.916016  -18375.00000    131.724655
    6833           0      1894.423584   -627.916016  -18625.00000    134.256836
    6834           0      1894.423584   -627.916016  -18875.00000    136.260757
    6835           0      1894.423584   -627.916016  -19125.00000    137.721222
    6836           0      1894.423584   -627.916016  -19375.00000    138.654099
    6837           0      1894.423584   -627.916016  -19625.00000    139.047424
    6838           0      1894.423584   -627.916016  -19875.00000    138.910416
    6839           0      1894.423584   -627.916016  -20125.00000    138.227158
    6840           0      1894.423584   -627.916016  -20375.00000    136.998657
    6841           0      1894.423584   -627.916016  -20625.00000    135.201263
    6842           0      1894.423584   -627.916016  -20875.00000    132.828430
    6843           0      1894.423584   -627.916016  -21125.00000    129.847046
    6844           0      1894.423584   -627.916016  -21375.00000    126.245575
    6845           0      1894.423584   -627.916016  -21625.00000    121.981621
    6846           0      1894.423584   -627.916016  -21875.00000    117.044342
    6847           0      1894.423584   -627.916016  -22125.00000    111.385193
    6848           0      1894.423584   -627.916016  -22375.00000    105.004921
    6849           0      1894.423584   -627.916016  -22625.00000     97.859001
    6850           0      1894.423584   -627.916016  -22875.00000     89.981972
    6851           0      1894.423584   -627.916016  -23125.00000     81.364632
    6852           0      1894.423584   -627.916016  -23375.00000     72.126587
    6853           0      1894.423584   -627.916016  -23625.00000     62.400700
    6854           0      1894.423584   -627.916016  -23875.00000     52.542728
    6855           0      1894.423584   -627.916016  -24125.00000     43.262695
    6856           0      1894.423584   -627.916016  -24375.00000     35.691086
    6857           0      1894.423584   -627.916016  -24625.00000     32.382900
    6858           0      1894.423584   -627.916016  -24875.00000     33.913410
    6859           0      1894.423584   -627.916016  -25125.00000     41.415253
    6860           0      1894.423584   -627.916016  -25375.00000     49.087734
    6861           0      1894.423584   -627.916016  -25625.00000     62.154972
    6862           0      1894.423584   -627.916016  -25875.00000     67.275826
    6863           0      1924.500366   -515.667969  -13625.00000    116.215782
    6864           0      1924.500366   -515.667969  -13875.00000    121.500320
    6865           0      1924.500366   -515.667969  -14125.00000    108.503998
    6866           0      1924.500366   -515.667969  -14375.00000    104.964882
    6867           0      1924.500366   -515.667969  -14625.00000    101.117867
    6868           0      1924.500366   -515.667969  -14875.00000    100.030075
    6869           0      1924.500366   -515.667969  -15125.00000    100.742722
    6870           0      1924.500366   -515.667969  -15375.00000    103.084099
    6871           0      1924.500366   -515.667969  -15625.00000    106.463737
    6872           0      1924.500366   -515.667969  -15875.00000    110.521988
    6873           0      1924.500366   -515.667969  -16125.00000    114.826439
    6874           0      1924.500366   -515.667969  -16375.00000    119.156769
    6875           0      1924.500366   -515.667969  -16625.00000    123.281410
    6876           0      1924.500366   -515.667969  -16875.00000    127.103897
    6877           0      1924.500366   -515.667969  -17125.00000    130.532211
    6878           0      1924.500366   -515.667969  -17375.00000    133.542389
    6879           0      1924.500366   -515.667969  -17625.00000    136.116882
    6880           0      1924.500366   -515.667969  -17875.00000    138.265259
    6881           0      1924.500366   -515.667969  -18125.00000    140.002197
    6882           0      1924.500366   -515.667969  -18375.00000    141.347702
    6883           0      1924.500366   -515.667969  -18625.00000    142.325470
    6884           0      1924.500366   -515.667969  -18875.00000    142.953735
    6885           0      1924.500366   -515.667969  -19125.00000    143.253433
    6886           0      1924.500366   -515.667969  -19375.00000    143.234787
    6887           0      1924.500366   -515.667969  -19625.00000    142.910690
    6888           0      1924.500366   -515.667969  -19875.00000    142.279922
    6889           0      1924.500366   -515.667969  -20125.00000    141.344986
    6890           0      1924.500366   -515.667969  -20375.00000    140.091202
    6891           0      1924.500366   -515.667969  -20625.00000    138.510117
    6892           0      1924.500366   -515.667969  -20875.00000    136.571884
    6893           0      1924.500366   -515.667969  -21125.00000    134.257996
    6894           0      1924.500366   -515.667969  -21375.00000    131.522171
    6895           0      1924.500366   -515.667969  -21625.00000    128.338608
    6896           0      1924.500366   -515.667969  -21875.00000    124.643959
    6897           0      1924.500366   -515.667969  -22125.00000    120.411659
    6898           0      1924.500366   -515.667969  -22375.00000    115.562981
    6899           0      1924.500366   -515.667969  -22625.00000    110.084061
    6900           0      1924.500366   -515.667969  -22875.00000    103.888451
    6901           0      1924.500366   -515.667969  -23125.00000     97.001930
    6902           0      1924.500366   -515.667969  -23375.00000     89.354965
    6903           0      1924.500366   -515.667969  -23625.00000     81.067245
    6904           0      1924.500366   -515.667969  -23875.00000     72.168663
    6905           0      1924.500366   -515.667969  -24125.00000     63.002972
    6906           0      1924.500366   -515.667969  -24375.00000     54.023411
    6907           0      1924.500366   -515.667969  -24625.00000     46.160728
    6908           0      1924.500366   -515.667969  -24875.00000     41.239872
    6909           0      1924.500366   -515.667969  -25125.00000     40.740971
    6910           0      1924.500366   -515.667969  -25375.00000     43.991890
    6911           0      1924.500366   -515.667969  -25625.00000     56.450855
    6912           0      1924.500366   -515.667969  -25875.00000     52.538982
    6913           0      1954.577148   -403.420013  -13625.00000    101.941086
    6914           0      1954.577148   -403.420013  -13875.00000    115.654861
    6915           0      1954.577148   -403.420013  -14125.00000    109.689148
    6916           0      1954.577148   -403.420013  -14375.00000    110.016342
    6917           0      1954.577148   -403.420013  -14625.00000    111.929939
    6918           0      1954.577148   -403.420013  -14875.00000    114.813461
    6919           0      1954.577148   -403.420013  -15125.00000    119.214905
    6920           0      1954.577148   -403.420013  -15375.00000    123.863625
    6921           0      1954.577148   -403.420013  -15625.00000    128.637939
    6922           0      1954.577148   -403.420013  -15875.00000    132.997452
    6923           0      1954.577148   -403.420013  -16125.00000    136.924362
    6924           0      1954.577148   -403.420013  -16375.00000    140.227417
    6925           0      1954.577148   -403.420013  -16625.00000    142.960175
    6926           0      1954.577148   -403.420013  -16875.00000    145.084625
    6927           0      1954.577148   -403.420013  -17125.00000    146.677063
    6928           0      1954.577148   -403.420013  -17375.00000    147.764709
    6929           0      1954.577148   -403.420013  -17625.00000    148.425537
    6930           0      1954.577148   -403.420013  -17875.00000    148.708969
    6931           0      1954.577148   -403.420013  -18125.00000    148.683380
    6932           0      1954.577148   -403.420013  -18375.00000    148.398605
    6933           0      1954.577148   -403.420013  -18625.00000    147.907791
    6934           0      1954.577148   -403.420013  -18875.00000    147.251022
    6935           0      1954.577148   -403.420013  -19125.00000    146.464020
    6936           0      1954.577148   -403.420013  -19375.00000    145.572922
    6937           0      1954.577148   -403.420013  -19625.00000    144.595657
    6938           0      1954.577148   -403.420013  -19875.00000    143.542633
    6939           0      1954.577148   -403.420013  -20125.00000    142.413727
    6940           0      1954.577148   -403.420013  -20375.00000    141.202667
    6941           0      1954.577148   -403.420013  -20625.00000    139.890533
    6942           0      1954.577148   -403.420013  -20875.00000    138.453690
    6943           0      1954.577148   -403.420013  -21125.00000    136.853043
    6944           0      1954.577148   -403.420013  -21375.00000    135.046921
    6945           0      1954.577148   -403.420013  -21625.00000    132.974838
    6946           0      1954.577148   -403.420013  -21875.00000    130.577393
    6947           0      1954.577148   -403.420013  -22125.00000    127.772102
    6948           0      1954.577148   -403.420013  -22375.00000    124.485825
    6949           0      1954.577148   -403.420013  -22625.00000    120.615479
    6950           0      1954.577148   -403.420013  -22875.00000    116.085289
    6951           0      1954.577148   -403.420013  -23125.00000    110.776794
    6952           0      1954.577148   -403.420013  -23375.00000    104.636719
    6953           0      1954.577148   -403.420013  -23625.00000     97.545540
    6954           0      1954.577148   -403.419983  -23875.00000     89.538040
    6955           0      1954.577148   -403.419983  -24125.00000     80.557503
    6956           0      1954.577148   -403.419983  -24375.00000     70.950111
    6957           0      1954.577148   -403.419983  -24625.00000     61.067581
    6958           0      1954.577148   -403.419983  -24875.00000     52.391106
    6959           0      1954.577148   -403.419983  -25125.00000     46.690163
    6960           0      1954.577148   -403.419983  -25375.00000     45.215561
    6961           0      1954.577148   -403.419983  -25625.00000     52.189003
    6962           0      1954.577148   -403.420013  -25875.00000     45.655998
    6963           0      1979.795044   -273.648010  -13625.00000     97.964401
    6964           0      1979.795044   -273.648010  -13875.00000    114.085556
    6965           0      1979.795044   -273.648010  -14125.00000    118.963852
    6966           0      1979.795044   -273.648010  -14375.00000    124.253693
    6967           0      1979.795044   -273.648010  -14625.00000    127.931885
    6968           0      1979.795044   -273.648010  -14875.00000    130.822784
    6969           0      1979.795044   -273.648010  -15125.00000    133.387970
    6970           0      1979.795044   -273.648010  -15375.00000    135.385468
    6971           0      1979.795044   -273.648010  -15625.00000    136.855515
    6972           0      1979.795044   -273.648010  -15875.00000    137.676666
    6973           0      1979.795044   -273.648010  -16125.00000    137.852432
    6974           0      1979.795044   -273.648010  -16375.00000    137.391785
    6975           0      1979.795044   -273.648010  -16625.00000    136.349335
    6976           0      1979.795044   -273.648010  -16875.00000    134.803619
    6977           0      1979.795044   -273.648010  -17125.00000    132.837341
    6978           0      1979.795044   -273.648010  -17375.00000    130.548492
    6979           0      1979.795044   -273.648010  -17625.00000    128.022125
    6980           0      1979.795044   -273.648010  -17875.00000    125.349625
    6981           0      1979.795044   -273.648010  -18125.00000    122.604950
    6982           0      1979.795044   -273.648010  -18375.00000    119.862869
    6983           0      1979.795044   -273.648010  -18625.00000    117.181366
    6984           0      1979.795044   -273.648010  -18875.00000    114.616272
    6985           0      1979.795044   -273.648010  -19125.00000    112.208672
    6986           0      1979.795044   -273.648010  -19375.00000    109.995659
    6987           0      1979.795044   -273.648010  -19625.00000    108.001633
    6988           0      1979.795044   -273.648010  -19875.00000    106.245193
    6989           0      1979.795044   -273.648010  -20125.00000    104.733414
    6990           0      1979.795044   -273.648010  -20375.00000    103.465614
    6991           0      1979.795044   -273.648010  -20625.00000    102.429619
    6992           0      1979.795044   -273.648010  -20875.00000    101.603310
    6993           0      1979.795044   -273.648010  -21125.00000    100.952499
    6994           0      1979.795044   -273.648010  -21375.00000    100.430862
    6995           0      1979.795044   -273.648010  -21625.00000     99.979797
    6996           0      1979.795044   -273.648010  -21875.00000     99.526566
    6997           0      1979.795044   -273.648010  -22125.00000     98.988243
    6998           0      1979.795044   -273.648010  -22375.00000     98.265404
    6999           0      1979.795044   -273.648010  -22625.00000     97.257004
    7000           0      1979.795044   -273.648010  -22875.00000     95.841347
    7001           0      1979.795044   -273.648010  -23125.00000     93.918762
    7002           0      1979.795044   -273.648010  -23375.00000     91.359612
    7003           0      1979.795044   -273.648010  -23625.00000     88.113731
    7004           0      1979.795044   -273.648010  -23875.00000     84.077019
    7005           0      1979.795044   -273.648010  -24125.00000     79.350006
    7006           0      1979.795044   -273.648010  -24375.00000     73.918221
    7007           0      1979.795044   -273.648010  -24625.00000     68.180908
    7008           0      1979.795044   -273.648010  -24875.00000     62.275188
    7009           0      1979.795044   -273.648010  -25125.00000     56.894642
    7010           0      1979.795044   -273.648010  -25375.00000     51.801636
    7011           0      1979.795044   -273.648010  -25625.00000     47.527985
    7012           0      1979.795044   -273.648010  -25875.00000     39.219810
    7013           0      1994.987305   -100.000000  -13625.00000    129.132828
    7014           0      1994.987305   -100.000000  -13875.00000    138.448730
    7015           0      1994.987305   -100.000000  -14125.00000    139.293579
    7016           0      1994.987305   -100.000000  -14375.00000    141.378540
    7017           0      1994.987305   -100.000000  -14625.00000    140.479599
    7018           0      1994.987305   -100.000000  -14875.00000    141.071121
    7019           0      1994.987305   -100.000000  -15125.00000    140.790726
    7020           0      1994.987305   -100.000000  -15375.00000    141.168655
    7021           0      1994.987305   -100.000000  -15625.00000    140.940720
    7022           0      1994.987305   -100.000000  -15875.00000    140.701080
    7023           0      1994.987305   -100.000000  -16125.00000    139.860443
    7024           0      1994.987305   -100.000000  -16375.00000    138.717896
    7025           0      1994.987305   -100.000000  -16625.00000    137.059494
    7026           0      1994.987305   -100.000000  -16875.00000    135.074753
    7027           0      1994.987305   -100.000000  -17125.00000    132.724533
    7028           0      1994.987305   -100.000000  -17375.00000    130.142197
    7029           0      1994.987305   -100.000000  -17625.00000    127.357674
    7030           0      1994.987305   -100.000000  -17875.00000    124.467598
    7031           0      1994.987305   -100.000000  -18125.00000    121.521591
    7032           0      1994.987305   -100.000000  -18375.00000    118.589470
    7033           0      1994.987305   -100.000000  -18625.00000    115.719353
    7034           0      1994.987305   -100.000000  -18875.00000    112.960220
    7035           0      1994.987305   -100.000000  -19125.00000    110.350075
    7036           0      1994.987305   -100.000000  -19375.00000    107.920761
    7037           0      1994.987305   -100.000000  -19625.00000    105.696625
    7038           0      1994.987305   -100.000000  -19875.00000    103.693657
    7039           0      1994.987305   -100.000000  -20125.00000    101.920258
    7040           0      1994.987305   -100.000000  -20375.00000    100.375626
    7041           0      1994.987305   -100.000000  -20625.00000     99.049347
    7042           0      1994.987305   -100.000000  -20875.00000     97.921051
    7043           0      1994.987305   -100.000000  -21125.00000     96.958191
    7044           0      1994.987305   -100.000000  -21375.00000     96.117104
    7045           0      1994.987305   -100.000000  -21625.00000     95.340431
    7046           0      1994.987305   -100.000000  -21875.00000     94.558067
    7047           0      1994.987305   -100.000000  -22125.00000     93.687920
    7048           0      1994.987305   -100.000000  -22375.00000     92.632172
    7049           0      1994.987305   -100.000000  -22625.00000     91.290634
    7050           0      1994.987305   -100.000000  -22875.00000     89.540443
    7051           0      1994.987305   -100.000000  -23125.00000     87.284523
    7052           0      1994.987305   -100.000000  -23375.00000     84.385399
    7053           0      1994.987305   -100.000000  -23625.00000     80.804245
    7054           0      1994.987305   -100.000000  -23875.00000     76.414986
    7055           0      1994.987305   -100.000000  -24125.00000     71.370750
    7056           0      1994.987305   -100.000000  -24375.00000     65.601357
    7057           0      1994.987305   -100.000000  -24625.00000     59.727283
    7058           0      1994.987305   -100.000000  -24875.00000     53.709343
    7059           0      1994.987305   -100.000000  -25125.00000     48.903675
    7060           0      1994.987305   -100.000000  -25375.00000     44.303577
    7061           0      1994.987305   -100.000000  -25625.00000     41.560768
    7062           0      1994.987305   -100.000000  -25875.00000     36.100693
    7063           0      1994.936035     57.882732   -124.999992     82.188484
    7064           0      1994.936035     57.882732   -375.000000     92.355125
    7065           0      1994.936035     57.882732   -625.000000     77.237793
    7066           0      1994.936035     57.882732   -875.000000     71.207314
    7067           0      1994.936035     57.882732  -1125.000000     67.019081
    7068           0      1994.936035     57.882732  -1375.000000     67.269707
    7069           0      1994.936035     57.882732  -1625.000000     71.348152
    7070           0      1994.936035     57.882732  -1875.000000     77.528099
    7071           0      1994.936035     57.882732  -2125.000000     84.756561
    7072           0      1994.936035     57.882736  -2375.000000     92.015404
    7073           0      1994.936035     57.882736  -2625.000000     98.969467
    7074           0      1994.936035     57.882736  -2875.000000    105.295303
    7075           0      1994.936035     57.882736  -3125.000000    110.957787
    7076           0      1994.936035     57.882736  -3375.000000    115.899445
    7077           0      1994.936035     57.882736  -3625.000000    120.173500
    7078           0      1994.936035     57.882736  -3875.000000    123.815361
    7079           0      1994.936035     57.882736  -4125.000000    126.900681
    7080           0      1994.936035     57.882736  -4375.000000    129.492035
    7081           0      1994.936035     57.882736  -4625.000000    131.662888
    7082           0      1994.936035     57.882736  -4875.000000    133.475967
    7083           0      1994.936035     57.882736  -5125.000000    134.993179
    7084           0      1994.936035     57.882736  -5375.000000    136.266617
    7085           0      1994.936035     57.882736  -5625.000000    137.343872
    7086           0      1994.936035     57.882736  -5875.000000    138.262970
    7087           0      1994.936035     57.882736  -6125.000000    139.056549
    7088           0      1994.936035     57.882736  -6375.000000    139.747955
    7089           0      1994.936035     57.882736  -6625.000000    140.355698
    7090           0      1994.936035     57.882740  -6875.000000    140.889450
    7091           0      1994.936035     57.882744  -7124.999512    141.354538
    7092           0      1994.936035     57.882744  -7375.000000    141.747055
    7093           0      1994.936035     57.882744  -7625.000000    142.060013
    7094           0      1994.936035     57.882744  -7875.000000    142.277664
    7095           0      1994.936035     57.882744  -8125.000000    142.381439
    7096           0      1994.936035     57.882744  -8375.000000    142.344833
    7097           0      1994.936035     57.882744  -8625.000000    142.139114
    7098           0      1994.936035     57.882744  -8875.000000    141.732269
    7099           0      1994.936035     57.882744  -9125.000000    141.087296
    7100           0      1994.936035     57.882744  -9375.000000    140.175797
    7101           0      1994.936035     57.882744  -9625.000000    138.958282
    7102           0      1994.936035     57.882744  -9875.000000    137.432388
    7103           0      1994.936035     57.882744  -10125.00000    135.564865
    7104           0      1994.936035     57.882744  -10375.00000    133.422836
    7105           0      1994.936035     57.882744  -10625.00000    130.995102
    7106           0      1994.936035     57.882744  -10875.00000    128.499344
    7107           0      1994.936035     57.882744  -11125.00000    125.967010
    7108           0      1994.936035     57.882748  -11375.00000    123.900360
    7109           0      1994.936035     57.882748  -11625.00000    122.389748
    7110           0      1994.936035     57.882748  -11875.00000    122.357208
    7111           0      1994.936035     57.882748  -12125.00000    123.816704
    7112           0      1994.936035     57.882748  -12374.99902    127.961136
    7113           0      1994.936035     57.882748  -12625.00000    133.989807
    7114           0      1994.936035     57.882748  -12875.00000    140.094101
    7115           0      1994.936035     57.882748  -13125.00000    156.681122
    7116           0      1994.936035     57.882740  -13375.00000    137.459213
    7117           0      1984.807739    173.648193   -124.999992     93.241730
    7118           0      1984.807739    173.648193   -375.000000    103.715874
    7119           0      1984.807739    173.648193   -625.000000     83.872398
    7120           0      1984.807739    173.648193   -875.000000     74.581131
    7121           0      1984.807739    173.648193  -1125.000000     66.040901
    7122           0      1984.807739    173.648193  -1375.000000     59.330227
    7123           0      1984.807739    173.648193  -1625.000000     57.195827
    7124           0      1984.807739    173.648193  -1875.000000     58.037685
    7125           0      1984.807739    173.648193  -2125.000000     62.042683
    7126           0      1984.807739    173.648193  -2375.000000     67.650253
    7127           0      1984.807739    173.648178  -2625.000000     74.194977
    7128           0      1984.807739    173.648178  -2875.000000     80.971146
    7129           0      1984.807739    173.648178  -3125.000000     87.610428
    7130           0      1984.807739    173.648178  -3375.000000     93.907310
    7131           0      1984.807739    173.648178  -3625.000000     99.717369
    7132           0      1984.807739    173.648178  -3875.000000    105.014954
    7133           0      1984.807739    173.648178  -4125.000000    109.759941
    7134           0      1984.807739    173.648178  -4375.000000    113.983673
    7135           0      1984.807739    173.648178  -4625.000000    117.690262
    7136           0      1984.807739    173.648178  -4875.000000    120.924362
    7137           0      1984.807739    173.648178  -5125.000000    123.705826
    7138           0      1984.807739    173.648163  -5375.000000    126.076935
    7139           0      1984.807739    173.648163  -5625.000000    128.059769
    7140           0      1984.807739    173.648163  -5875.000000    129.688629
    7141           0      1984.807739    173.648163  -6125.000000    130.981674
    7142           0      1984.807739    173.648163  -6375.000000    131.963715
    7143           0      1984.807739    173.648163  -6625.000000    132.646317
    7144           0      1984.807739    173.648163  -6875.000000    133.045319
    7145           0      1984.807739    173.648163  -7124.999512    133.165024
    7146           0      1984.807739    173.648163  -7375.000000    133.013306
    7147           0      1984.807739    173.648163  -7625.000000    132.588364
    7148           0      1984.807739    173.648163  -7875.000000    131.892700
    7149           0      1984.807739    173.648163  -8125.000000    130.920441
    7150           0      1984.807739    173.648148  -8375.000000    129.673431
    7151           0      1984.807739    173.648148  -8625.000000    128.146591
    7152           0      1984.807739    173.648148  -8875.000000    126.349754
    7153           0      1984.807739    173.648148  -9125.000000    124.287476
    7154           0      1984.807739    173.648148  -9375.000000    121.994240
    7155           0      1984.807739    173.648148  -9625.000000    119.499268
    7156           0      1984.807739    173.648132  -9875.000000    116.893631
    7157           0      1984.807739    173.648132  -10125.00000    114.249939
    7158           0      1984.807739    173.648132  -10375.00000    111.773430
    7159           0      1984.807739    173.648132  -10625.00000    109.584373
    7160           0      1984.807739    173.648132  -10875.00000    108.089355
    7161           0      1984.807739    173.648132  -11125.00000    107.373566
    7162           0      1984.807739    173.648132  -11375.00000    108.151421
    7163           0      1984.807739    173.648132  -11625.00000    110.149750
    7164           0      1984.807739    173.648132  -11875.00000    114.544167
    7165           0      1984.807739    173.648132  -12125.00000    120.047585
    7166           0      1984.807739    173.648132  -12374.99902    128.570618
    7167           0      1984.807739    173.648132  -12625.00000    137.720886
    7168           0      1984.807739    173.648117  -12875.00000    146.335342
    7169           0      1984.807739    173.648117  -13125.00000    168.388031
    7170           0      1984.807739    173.648163  -13375.00000    154.502853
    7171           0      1974.679443    289.413666   -124.999992    115.383148
    7172           0      1974.679443    289.413666   -375.000000    112.562004
    7173           0      1974.679443    289.413666   -625.000000     95.587708
    7174           0      1974.679443    289.413635   -875.000000     85.184883
    7175           0      1974.679443    289.413635  -1125.000000     71.948372
    7176           0      1974.679443    289.413635  -1375.000000     61.467422
    7177           0      1974.679443    289.413635  -1625.000000     51.434845
    7178           0      1974.679443    289.413635  -1875.000000     45.184597
    7179           0      1974.679443    289.413635  -2125.000000     42.314808
    7180           0      1974.679443    289.413635  -2375.000000     44.143387
    7181           0      1974.679443    289.413635  -2625.000000     48.999855
    7182           0      1974.679443    289.413635  -2875.000000     55.882339
    7183           0      1974.679443    289.413635  -3125.000000     63.496288
    7184           0      1974.679443    289.413635  -3375.000000     71.278961
    7185           0      1974.679443    289.413635  -3625.000000     78.814156
    7186           0      1974.679443    289.413635  -3875.000000     85.910042
    7187           0      1974.679443    289.413635  -4125.000000     92.458588
    7188           0      1974.679443    289.413635  -4375.000000     98.398933
    7189           0      1974.679443    289.413635  -4625.000000    103.719093
    7190           0      1974.679443    289.413635  -4875.000000    108.406670
    7191           0      1974.679443    289.413635  -5125.000000    112.479820
    7192           0      1974.679443    289.413635  -5375.000000    115.944199
    7193           0      1974.679443    289.413635  -5625.000000    118.824829
    7194           0      1974.679443    289.413635  -5875.000000    121.132545
    7195           0      1974.679443    289.413635  -6125.000000    122.891556
    7196           0      1974.679443    289.413635  -6375.000000    124.111549
    7197           0      1974.679443    289.413635  -6625.000000    124.813560
    7198           0      1974.679443    289.413605  -6875.000000    125.003525
    7199           0      1974.679443    289.413605  -7124.999512    124.700188
    7200           0      1974.679443    289.413605  -7375.000000    123.906044
    7201           0      1974.679443    289.413605  -7625.000000    122.641571
    7202           0      1974.679443    289.413605  -7875.000000    120.907990
    7203           0      1974.679443    289.413605  -8125.000000    118.735817
    7204           0      1974.679443    289.413605  -8375.000000    116.130821
    7205           0      1974.679443    289.413605  -8625.000000    113.149887
    7206           0      1974.679443    289.413605  -8875.000000    109.813377
    7207           0      1974.679443    289.413605  -9125.000000    106.235924
    7208           0      1974.679443    289.413605  -9375.000000    102.470993
    7209           0      1974.679443    289.413574  -9625.000000     98.748161
    7210           0      1974.679443    289.413574  -9875.000000     95.173218
    7211           0      1974.679443    289.413574  -10125.00000     92.182404
    7212           0      1974.679443    289.413574  -10375.00000     89.912773
    7213           0      1974.679443    289.413574  -10625.00000     89.087463
    7214           0      1974.679443    289.413574  -10875.00000     89.666412
    7215           0      1974.679443    289.413574  -11125.00000     92.612244
    7216           0      1974.679443    289.413574  -11375.00000     97.205986
    7217           0      1974.679443    289.413574  -11625.00000    104.603828
    7218           0      1974.679443    289.413574  -11875.00000    112.959938
    7219           0      1974.679443    289.413574  -12125.00000    124.056503
    7220           0      1974.679443    289.413574  -12374.99902    134.574341
    7221           0      1974.679443    289.413574  -12625.00000    148.192734
    7222           0      1974.679443    289.413574  -12875.00000    159.167221
    7223           0      1974.679443    289.413574  -13125.00000    175.168594
    7224           0      1974.679443    289.413605  -13375.00000    182.686676
    7225           0      1954.577026    403.420410   -124.999985    112.850136
    7226           0      1954.577026    403.420410   -375.000000    114.776527
    7227           0      1954.577026    403.420410   -624.999939     97.174713
    7228           0      1954.577026    403.420410   -875.000000     87.573891
    7229           0      1954.577026    403.420410  -1125.000000     74.649261
    7230           0      1954.577026    403.420410  -1375.000122     63.809383
    7231           0      1954.577026    403.420410  -1625.000000     52.116016
    7232           0      1954.577026    403.420410  -1874.999756     42.466518
    7233           0      1954.577026    403.420410  -2125.000000     34.253563
    7234           0      1954.577026    403.420410  -2375.000244     30.104948
    7235           0      1954.577026    403.420410  -2624.999756     30.336632
    7236           0      1954.577026    403.420410  -2874.999512     34.715618
    7237           0      1954.577026    403.420410  -3124.999756     41.262344
    7238           0      1954.577026    403.420410  -3375.000244     48.713547
    7239           0      1954.577026    403.420410  -3625.000244     56.296822
    7240           0      1954.577026    403.420410  -3875.000244     63.629494
    7241           0      1954.577026    403.420410  -4125.000000     70.520973
    7242           0      1954.577026    403.420410  -4375.000000     76.853455
    7243           0      1954.577026    403.420410  -4625.000000     82.579231
    7244           0      1954.577026    403.420410  -4875.000000     87.662094
    7245           0      1954.577026    403.420410  -5124.999512     92.094238
    7246           0      1954.577026    403.420410  -5374.999512     95.871071
    7247           0      1954.577026    403.420410  -5625.000000     98.997238
    7248           0      1954.577026    403.420410  -5875.000488    101.481262
    7249           0      1954.577026    403.420410  -6125.000977    103.329918
    7250           0      1954.577026    403.420410  -6375.000488    104.558594
    7251           0      1954.577026    403.420410  -6625.000000    105.173294
    7252           0      1954.577026    403.420410  -6875.000488    105.194656
    7253           0      1954.577026    403.420410  -7124.999512    104.628044
    7254           0      1954.577026    403.420410  -7374.999023    103.501518
    7255           0      1954.577026    403.420410  -7625.000000    101.823029
    7256           0      1954.577026    403.420410  -7875.000000     99.636581
    7257           0      1954.577026    403.420410  -8124.999023     96.960335
    7258           0      1954.577026    403.420410  -8374.999023     93.870331
    7259           0      1954.577026    403.420410  -8625.000000     90.411179
    7260           0      1954.577026    403.420410  -8875.000977     86.723183
    7261           0      1954.577026    403.420410  -9125.000000     82.909958
    7262           0      1954.577026    403.420410  -9374.999023     79.226517
    7263           0      1954.577026    403.420410  -9625.000000     75.886909
    7264           0      1954.577026    403.420410  -9875.000000     73.316124
    7265           0      1954.577026    403.420410  -10125.00000     71.855667
    7266           0      1954.577026    403.420410  -10375.00000     72.016121
    7267           0      1954.577026    403.420410  -10624.99902     74.095711
    7268           0      1954.577026    403.420410  -10875.00097     78.314484
    7269           0      1954.577026    403.420410  -11125.00097     84.699097
    7270           0      1954.577026    403.420410  -11375.00000     92.890373
    7271           0      1954.577026    403.420410  -11625.00000    102.908569
    7272           0      1954.577026    403.420410  -11875.00000    113.781738
    7273           0      1954.577026    403.420410  -12125.00000    126.081635
    7274           0      1954.577026    403.420410  -12374.99902    138.076889
    7275           0      1954.577026    403.420410  -12625.00000    151.617966
    7276           0      1954.577026    403.420410  -12874.99902    162.147476
    7277           0      1954.577026    403.420410  -13124.99804    184.865952
    7278           0      1954.577026    403.420410  -13374.99902    172.834381
    7279           0      1924.500244    515.668335   -124.999985     93.768562
    7280           0      1924.500244    515.668335   -374.999969    106.028419
    7281           0      1924.500244    515.668335   -624.999939     88.085831
    7282           0      1924.500244    515.668335   -874.999878     79.478912
    7283           0      1924.500244    515.668335  -1124.999878     70.796486
    7284           0      1924.500244    515.668335  -1375.000244     60.847599
    7285           0      1924.500244    515.668335  -1625.000000     52.160938
    7286           0      1924.500244    515.668335  -1874.999512     43.021130
    7287           0      1924.500244    515.668335  -2125.000244     35.057793
    7288           0      1924.500244    515.668335  -2375.000244     27.803104
    7289           0      1924.500244    515.668335  -2624.999756     22.853096
    7290           0      1924.500244    515.668335  -2874.999512     20.865366
    7291           0      1924.500244    515.668335  -3124.999512     22.538105
    7292           0      1924.500244    515.668335  -3375.000488     26.678350
    7293           0      1924.500244    515.668335  -3625.000488     31.998539
    7294           0      1924.500244    515.668335  -3875.000244     37.691631
    7295           0      1924.500244    515.668335  -4125.000488     43.291889
    7296           0      1924.500244    515.668335  -4375.000488     48.617020
    7297           0      1924.500244    515.668335  -4625.000488     53.506107
    7298           0      1924.500244    515.668335  -4874.999512     57.918972
    7299           0      1924.500244    515.668335  -5124.999512     61.787525
    7300           0      1924.500244    515.668335  -5374.999023     65.106270
    7301           0      1924.500244    515.668335  -5625.000000     67.845978
    7302           0      1924.500244    515.668335  -5875.000977     70.011841
    7303           0      1924.500244    515.668335  -6125.000977     71.596977
    7304           0      1924.500244    515.668335  -6375.000000     72.610435
    7305           0      1924.500244    515.668335  -6625.000000     73.062050
    7306           0      1924.500244    515.668335  -6875.000977     72.965240
    7307           0      1924.500244    515.668396  -7124.999023     72.347282
    7308           0      1924.500244    515.668396  -7374.998535     71.230782
    7309           0      1924.500244    515.668396  -7625.000000     69.667793
    7310           0      1924.500244    515.668396  -7875.000000     67.702232
    7311           0      1924.500244    515.668396  -8124.999023     65.427307
    7312           0      1924.500244    515.668396  -8374.999023     62.932304
    7313           0      1924.500244    515.668396  -8625.000000     60.381287
    7314           0      1924.500244    515.668396  -8875.000977     57.950451
    7315           0      1924.500244    515.668396  -9125.000000     55.907082
    7316           0      1924.500244    515.668396  -9374.998047     54.551311
    7317           0      1924.500244    515.668396  -9625.000000     54.210659
    7318           0      1924.500244    515.668396  -9875.000000     55.233055
    7319           0      1924.500244    515.668396  -10125.00000     57.754215
    7320           0      1924.500244    515.668396  -10375.00000     61.990982
    7321           0      1924.500244    515.668396  -10624.99804     67.639275
    7322           0      1924.500244    515.668396  -10875.00195     74.887985
    7323           0      1924.500244    515.668396  -11125.00195     83.010696
    7324           0      1924.500244    515.668396  -11375.00000     92.518318
    7325           0      1924.500244    515.668396  -11625.00000    102.198601
    7326           0      1924.500244    515.668396  -11875.00000    113.252655
    7327           0      1924.500244    515.668396  -12125.00000    123.568031
    7328           0      1924.500244    515.668396  -12375.00000    135.822876
    7329           0      1924.500244    515.668396  -12625.00000    146.147202
    7330           0      1924.500244    515.668396  -12874.99804    156.662201
    7331           0      1924.500244    515.668396  -13124.99609    180.225494
    7332           0      1924.500244    515.668396  -13374.99804    161.174988
    7333           0      1894.423584    627.916321   -124.999992     86.730957
    7334           0      1894.423584    627.916321   -375.000000     91.247299
    7335           0      1894.423584    627.916321   -625.000000     80.697586
    7336           0      1894.423584    627.916321   -874.999939     74.137444
    7337           0      1894.423584    627.916321  -1125.000000     67.415421
    7338           0      1894.423584    627.916321  -1375.000122     60.709881
    7339           0      1894.423584    627.916321  -1625.000000     54.073860
    7340           0      1894.423584    627.916321  -1874.999756     47.566460
    7341           0      1894.423584    627.916321  -2125.000000     41.090492
    7342           0      1894.423584    627.916321  -2375.000000     34.888779
    7343           0      1894.423584    627.916321  -2625.000000     28.989857
    7344           0      1894.423584    627.916321  -2874.999756     23.758825
    7345           0      1894.423584    627.916321  -3125.000000     19.561169
    7346           0      1894.423584    627.916321  -3375.000244     17.028147
    7347           0      1894.423584    627.916321  -3625.000000     16.679066
    7348           0      1894.423584    627.916321  -3875.000000     18.279840
    7349           0      1894.423584    627.916321  -4125.000000     21.154436
    7350           0      1894.423584    627.916321  -4375.000000     24.519779
    7351           0      1894.423584    627.916321  -4625.000000     27.999411
    7352           0      1894.423584    627.916321  -4875.000000     31.283985
    7353           0      1894.423584    627.916321  -5125.000000     34.275326
    7354           0      1894.423584    627.916321  -5375.000000     36.850311
    7355           0      1894.423584    627.916321  -5625.000000     38.985981
    7356           0      1894.423584    627.916321  -5875.000488     40.629070
    7357           0      1894.423584    627.916321  -6125.000488     41.781563
    7358           0      1894.423584    627.916321  -6375.000000     42.429619
    7359           0      1894.423584    627.916321  -6625.000000     42.591843
    7360           0      1894.423584    627.916321  -6875.000000     42.287884
    7361           0      1894.423584    627.916382  -7124.999512     41.560192
    7362           0      1894.423584    627.916382  -7374.999023     40.472942
    7363           0      1894.423584    627.916382  -7625.000000     39.115379
    7364           0      1894.423584    627.916382  -7875.000000     37.623672
    7365           0      1894.423584    627.916382  -8125.000000     36.180283
    7366           0      1894.423584    627.916382  -8375.000000     35.030773
    7367           0      1894.423584    627.916382  -8625.000000     34.485611
    7368           0      1894.423584    627.916382  -8875.000000     34.845806
    7369           0      1894.423584    627.916382  -9125.000000     36.417480
    7370           0      1894.423584    627.916382  -9375.000000     39.273571
    7371           0      1894.423584    627.916382  -9625.000000     43.497879
    7372           0      1894.423584    627.916382  -9875.000000     48.826046
    7373           0      1894.423584    627.916382  -10124.99902     55.267921
    7374           0      1894.423584    627.916382  -10374.99902     62.397190
    7375           0      1894.423584    627.916382  -10625.00000     70.360992
    7376           0      1894.423584    627.916382  -10875.00000     78.613220
    7377           0      1894.423584    627.916382  -11125.00000     87.532852
    7378           0      1894.423584    627.916382  -11375.00000     96.383919
    7379           0      1894.423584    627.916382  -11625.00000    105.876175
    7380           0      1894.423584    627.916382  -11875.00000    114.963524
    7381           0      1894.423584    627.916382  -12125.00000    124.870049
    7382           0      1894.423584    627.916382  -12374.99902    134.015900
    7383           0      1894.423584    627.916382  -12625.00000    144.334244
    7384           0      1894.423584    627.916382  -12874.99902    153.641647
    7385           0      1894.423584    627.916382  -13124.99902    165.812149
    7386           0      1894.423584    627.916321  -13374.99902    166.450043
    7387           0      1854.829346    736.700317   -124.999985     74.272087
    7388           0      1854.829346    736.700317   -375.000000     75.140060
    7389           0      1854.829346    736.700317   -624.999939     68.363838
    7390           0      1854.829346    736.700317   -875.000000     64.907555
    7391           0      1854.829346    736.700317  -1125.000000     59.781483
    7392           0      1854.829346    736.700317  -1375.000122     56.013321
    7393           0      1854.829346    736.700317  -1625.000000     51.628914
    7394           0      1854.829346    736.700317  -1874.999756     47.870075
    7395           0      1854.829346    736.700317  -2125.000000     43.926315
    7396           0      1854.829346    736.700317  -2375.000244     40.366879
    7397           0      1854.829346    736.700317  -2624.999756     36.884838
    7398           0      1854.829346    736.700317  -2874.999512     33.794964
    7399           0      1854.829346    736.700317  -3124.999756     31.016481
    7400           0      1854.829346    736.700317  -3375.000244     28.756464
    7401           0      1854.829346    736.700317  -3625.000244     27.003258
    7402           0      1854.829346    736.700317  -3875.000244     25.863611
    7403           0      1854.829346    736.700317  -4125.000000     25.268858
    7404           0      1854.829346    736.700317  -4375.000000     25.190735
    7405           0      1854.829346    736.700317  -4625.000000     25.473038
    7406           0      1854.829346    736.700317  -4875.000000     26.010462
    7407           0      1854.829346    736.700317  -5124.999512     26.642019
    7408           0      1854.829346    736.700317  -5374.999512     27.275913
    7409           0      1854.829346    736.700317  -5625.000000     27.803398
    7410           0      1854.829346    736.700317  -5875.000488     28.177244
    7411           0      1854.829346    736.700317  -6125.000977     28.346619
    7412           0      1854.829346    736.700317  -6375.000488     28.310556
    7413           0      1854.829346    736.700317  -6625.000000     28.073238
    7414           0      1854.829346    736.700317  -6875.000488     27.686308
    7415           0      1854.829346    736.700317  -7124.999512     27.218472
    7416           0      1854.829346    736.700317  -7374.999023     26.793417
    7417           0      1854.829346    736.700317  -7625.000000     26.557823
    7418           0      1854.829346    736.700317  -7875.000000     26.713375
    7419           0      1854.829346    736.700317  -8124.999023     27.445890
    7420           0      1854.829346    736.700317  -8374.999023     28.946573
    7421           0      1854.829346    736.700317  -8625.000000     31.299109
    7422           0      1854.829346    736.700317  -8875.000977     34.555511
    7423           0      1854.829346    736.700317  -9125.000000     38.642349
    7424           0      1854.829346    736.700317  -9374.999023     43.509357
    7425           0      1854.829346    736.700317  -9625.000000     49.024311
    7426           0      1854.829346    736.700317  -9875.000000     55.116600
    7427           0      1854.829346    736.700317  -10125.00000     61.667999
    7428           0      1854.829346    736.700317  -10375.00000     68.596809
    7429           0      1854.829346    736.700317  -10624.99902     75.838013
    7430           0      1854.829346    736.700317  -10875.00097     83.257751
    7431           0      1854.829346    736.700317  -11125.00097     90.912514
    7432           0      1854.829346    736.700317  -11375.00000     98.526978
    7433           0      1854.829346    736.700317  -11625.00000    106.431717
    7434           0      1854.829346    736.700317  -11875.00000    114.020447
    7435           0      1854.829346    736.700317  -12125.00000    122.199875
    7436           0      1854.829346    736.700317  -12374.99902    129.676926
    7437           0      1854.829346    736.700317  -12625.00000    138.466080
    7438           0      1854.829346    736.700317  -12874.99902    144.814331
    7439           0      1854.829346    736.700317  -13124.99804    159.332306
    7440           0      1854.829346    736.700317  -13374.99902    149.180923
    7441           0      1805.717896    842.020203   -124.999985     52.242672
    7442           0      1805.717896    842.020203   -374.999969     59.635288
    7443           0      1805.717896    842.020203   -624.999939     52.345322
    7444           0      1805.717896    842.020203   -874.999878     50.761738
    7445           0      1805.717896    842.020203  -1124.999878     48.470032
    7446           0      1805.717896    842.020203  -1375.000244     46.180096
    7447           0      1805.717896    842.020203  -1625.000000     44.283176
    7448           0      1805.717896    842.020203  -1874.999512     42.444843
    7449           0      1805.717896    842.020203  -2125.000244     40.877735
    7450           0      1805.717896    842.020203  -2375.000244     39.411621
    7451           0      1805.717896    842.020203  -2624.999756     38.172184
    7452           0      1805.717896    842.020142  -2874.999512     37.041965
    7453           0      1805.717896    842.020142  -3124.999512     36.105824
    7454           0      1805.717896    842.020142  -3375.000488     35.282066
    7455           0      1805.717896    842.020142  -3625.000488     34.622135
    7456           0      1805.717896    842.020142  -3875.000244     34.064503
    7457           0      1805.717896    842.020142  -4125.000488     33.633312
    7458           0      1805.717896    842.020142  -4375.000488     33.277542
    7459           0      1805.717896    842.020142  -4625.000488     33.002613
    7460           0      1805.717896    842.020142  -4874.999512     32.766552
    7461           0      1805.717896    842.020142  -5124.999512     32.567455
    7462           0      1805.717896    842.020142  -5374.999023     32.376339
    7463           0      1805.717896    842.020142  -5625.000000     32.197578
    7464           0      1805.717896    842.020142  -5875.000977     32.020916
    7465           0      1805.717896    842.020142  -6125.000977     31.867092
    7466           0      1805.717896    842.020142  -6375.000000     31.752264
    7467           0      1805.717896    842.020142  -6625.000000     31.721558
    7468           0      1805.717896    842.020142  -6875.000977     31.819983
    7469           0      1805.717896    842.020142  -7124.999023     32.117992
    7470           0      1805.717896    842.020142  -7374.998535     32.680729
    7471           0      1805.717896    842.020142  -7625.000000     33.588142
    7472           0      1805.717896    842.020142  -7875.000000     34.901451
    7473           0      1805.717896    842.020142  -8124.999023     36.678558
    7474           0      1805.717896    842.020142  -8374.999023     38.948864
    7475           0      1805.717896    842.020142  -8625.000000     41.723515
    7476           0      1805.717896    842.020142  -8875.000977     44.997089
    7477           0      1805.717896    842.020142  -9125.000000     48.735062
    7478           0      1805.717896    842.020142  -9374.998047     52.918427
    7479           0      1805.717896    842.020142  -9625.000000     57.475079
    7480           0      1805.717896    842.020142  -9875.000000     62.405865
    7481           0      1805.717896    842.020142  -10125.00000     67.592728
    7482           0      1805.717896    842.020142  -10375.00000     73.095100
    7483           0      1805.717896    842.020142  -10624.99804     78.718224
    7484           0      1805.717896    842.020081  -10875.00195     84.637238
    7485           0      1805.717896    842.020081  -11125.00195     90.514969
    7486           0      1805.717896    842.020081  -11375.00000     96.742096
    7487           0      1805.717896    842.020081  -11625.00000    102.715691
    7488           0      1805.717896    842.020081  -11875.00000    109.231766
    7489           0      1805.717896    842.020081  -12125.00000    115.099579
    7490           0      1805.717896    842.020081  -12375.00000    122.181137
    7491           0      1805.717896    842.020081  -12625.00000    127.790215
    7492           0      1805.717896    842.020081  -12874.99804    133.335754
    7493           0      1805.717896    842.020081  -13124.99609    149.651611
    7494           0      1805.717896    842.020142  -13374.99804    131.999634
    7495           0      1756.606445    947.340088   -124.999992     35.208275
    7496           0      1756.606445    947.340088   -375.000000     41.484383
    7497           0      1756.606445    947.340088   -625.000000     39.085876
    7498           0      1756.606445    947.340088   -874.999939     38.283482
    7499           0      1756.606445    947.340088  -1125.000000     38.623203
    7500           0      1756.606445    947.340088  -1375.000122     38.318489
    7501           0      1756.606445    947.340088  -1625.000000     38.659946
    7502           0      1756.606445    947.340088  -1874.999756     39.019798
    7503           0      1756.606445    947.340088  -2125.000000     39.661476
    7504           0      1756.606445    947.340088  -2375.000000     40.438450
    7505           0      1756.606445    947.340088  -2625.000000     41.347439
    7506           0      1756.606445    947.340027  -2874.999756     42.355652
    7507           0      1756.606445    947.340027  -3125.000000     43.392517
    7508           0      1756.606445    947.340027  -3375.000244     44.456707
    7509           0      1756.606445    947.340027  -3625.000000     45.477997
    7510           0      1756.606445    947.340027  -3875.000000     46.464264
    7511           0      1756.606445    947.340027  -4125.000000     47.366707
    7512           0      1756.606445    947.340027  -4375.000000     48.198090
    7513           0      1756.606445    947.340027  -4625.000000     48.932060
    7514           0      1756.606445    947.340027  -4875.000000     49.585796
    7515           0      1756.606445    947.340027  -5125.000000     50.150703
    7516           0      1756.606445    947.340027  -5375.000000     50.648853
    7517           0      1756.606445    947.340027  -5625.000000     51.083786
    7518           0      1756.606445    947.340027  -5875.000488     51.483696
    7519           0      1756.606445    947.340027  -6125.000488     51.863155
    7520           0      1756.606445    947.340027  -6375.000000     52.253967
    7521           0      1756.606445    947.340027  -6625.000000     52.678654
    7522           0      1756.606445    947.340027  -6875.000000     53.175064
    7523           0      1756.606445    947.340027  -7124.999512     53.772167
    7524           0      1756.606445    947.340027  -7374.999023     54.504772
    7525           0      1756.606445    947.340027  -7625.000000     55.405048
    7526           0      1756.606445    947.340027  -7875.000000     56.502708
    7527           0      1756.606445    947.340027  -8125.000000     57.827103
    7528           0      1756.606445    947.340027  -8375.000000     59.392242
    7529           0      1756.606445    947.340027  -8625.000000     61.223316
    7530           0      1756.606445    947.340027  -8875.000000     63.313255
    7531           0      1756.606445    947.340027  -9125.000000     65.682594
    7532           0      1756.606445    947.340027  -9375.000000     68.298126
    7533           0      1756.606445    947.340027  -9625.000000     71.187408
    7534           0      1756.606445    947.340027  -9875.000000     74.285576
    7535           0      1756.606445    947.340027  -10124.99902     77.641693
    7536           0      1756.606445    947.340027  -10374.99902     81.151299
    7537           0      1756.606445    947.340027  -10625.00000     84.911140
    7538           0      1756.606445    947.339966  -10875.00000     88.756721
    7539           0      1756.606445    947.339966  -11125.00000     92.862633
    7540           0      1756.606445    947.339966  -11375.00000     96.981918
    7541           0      1756.606445    947.339966  -11625.00000    101.392410
    7542           0      1756.606445    947.339966  -11875.00000    105.734749
    7543           0      1756.606445    947.339966  -12125.00000    110.410500
    7544           0      1756.606445    947.339966  -12374.99902    114.975883
    7545           0      1756.606445    947.339966  -12625.00000    119.652611
    7546           0      1756.606445    947.339966  -12874.99902    124.723335
    7547           0      1756.606445    947.339966  -13124.99902    130.950958
    7548           0      1756.606445    947.340027  -13374.99902    127.823402
    7549           0      1698.723633   1047.595947   -124.999985     24.701548
    7550           0      1698.723633   1047.595947   -375.000000     26.194614
    7551           0      1698.723633   1047.595947   -624.999939     27.172232
    7552           0      1698.723633   1047.595947   -875.000000     27.902271
    7553           0      1698.723633   1047.595947  -1125.000000     29.085840
    7554           0      1698.723633   1047.595947  -1375.000122     30.235826
    7555           0      1698.723633   1047.595947  -1625.000000     31.723577
    7556           0      1698.723633   1047.595947  -1874.999756     33.285736
    7557           0      1698.723633   1047.595947  -2125.000000     35.140469
    7558           0      1698.723633   1047.595947  -2375.000244     37.085827
    7559           0      1698.723633   1047.595947  -2624.999756     39.226505
    7560           0      1698.723633   1047.595947  -2874.999512     41.406464
    7561           0      1698.723633   1047.595947  -3124.999756     43.661919
    7562           0      1698.723633   1047.595947  -3375.000244     45.877453
    7563           0      1698.723633   1047.595947  -3625.000244     48.061905
    7564           0      1698.723633   1047.595947  -3875.000244     50.138218
    7565           0      1698.723633   1047.595947  -4125.000000     52.111603
    7566           0      1698.723633   1047.595947  -4375.000000     53.937939
    7567           0      1698.723633   1047.595947  -4625.000000     55.627468
    7568           0      1698.723633   1047.595947  -4875.000000     57.160576
    7569           0      1698.723633   1047.595947  -5124.999512     58.554070
    7570           0      1698.723633   1047.595947  -5374.999512     59.805183
    7571           0      1698.723633   1047.595947  -5625.000000     60.935791
    7572           0      1698.723633   1047.595947  -5875.000488     61.953918
    7573           0      1698.723633   1047.595947  -6125.000977     62.884892
    7574           0      1698.723633   1047.595947  -6375.000488     63.744030
    7575           0      1698.723633   1047.595947  -6625.000000     64.557808
    7576           0      1698.723633   1047.595947  -6875.000488     65.345894
    7577           0      1698.723633   1047.595947  -7124.999512     66.134521
    7578           0      1698.723633   1047.595947  -7374.999023     66.945709
    7579           0      1698.723633   1047.595947  -7625.000000     67.802673
    7580           0      1698.723633   1047.595947  -7875.000000     68.728928
    7581           0      1698.723633   1047.595947  -8124.999023     69.741608
    7582           0      1698.723633   1047.595947  -8374.999023     70.863693
    7583           0      1698.723633   1047.595947  -8625.000000     72.105286
    7584           0      1698.723633   1047.595947  -8875.000977     73.486847
    7585           0      1698.723633   1047.595947  -9125.000000     75.010292
    7586           0      1698.723633   1047.595947  -9374.999023     76.693848
    7587           0      1698.723633   1047.595947  -9625.000000     78.530754
    7588           0      1698.723633   1047.595947  -9875.000000     80.536079
    7589           0      1698.723633   1047.595947  -10125.00000     82.698463
    7590           0      1698.723633   1047.595947  -10375.00000     85.024712
    7591           0      1698.723633   1047.595947  -10624.99902     87.511238
    7592           0      1698.723633   1047.595947  -10875.00097     90.140137
    7593           0      1698.723633   1047.595947  -11125.00097     92.945915
    7594           0      1698.723633   1047.595947  -11375.00000     95.843842
    7595           0      1698.723633   1047.595947  -11625.00000     98.973534
    7596           0      1698.723633   1047.595947  -11875.00000    102.079651
    7597           0      1698.723633   1047.595947  -12125.00000    105.546349
    7598           0      1698.723633   1047.595947  -12374.99902    108.770485
    7599           0      1698.723633   1047.595947  -12625.00000    112.579559
    7600           0      1698.723633   1047.595947  -12874.99902    115.353340
    7601           0      1698.723633   1047.595947  -13124.99804    122.827202
    7602           0      1698.723633   1047.595947  -13374.99902    113.698090
    7603           0      1632.069702   1142.787598   -124.999985     17.106085
    7604           0      1632.069702   1142.787598   -374.999969     18.259399
    7605           0      1632.069702   1142.787598   -624.999939     18.129410
    7606           0      1632.069702   1142.787598   -874.999878     19.974438
    7607           0      1632.069702   1142.787598  -1124.999878     20.839300
    7608           0      1632.069702   1142.787598  -1375.000244     22.459511
    7609           0      1632.069702   1142.787598  -1625.000000     23.982836
    7610           0      1632.069702   1142.787598  -1874.999512     25.901222
    7611           0      1632.069702   1142.787598  -2125.000244     27.908745
    7612           0      1632.069702   1142.787598  -2375.000244     30.185934
    7613           0      1632.069702   1142.787598  -2624.999756     32.570648
    7614           0      1632.069702   1142.787598  -2874.999512     35.109276
    7615           0      1632.069702   1142.787598  -3124.999512     37.699860
    7616           0      1632.069702   1142.787598  -3375.000488     40.336720
    7617           0      1632.069702   1142.787598  -3625.000488     42.950268
    7618           0      1632.069702   1142.787598  -3875.000244     45.523193
    7619           0      1632.069702   1142.787598  -4125.000488     48.009411
    7620           0      1632.069702   1142.787598  -4375.000488     50.395733
    7621           0      1632.069702   1142.787598  -4625.000488     52.654709
    7622           0      1632.069702   1142.787598  -4874.999512     54.782188
    7623           0      1632.069702   1142.787598  -5124.999512     56.765034
    7624           0      1632.069702   1142.787598  -5374.999023     58.607426
    7625           0      1632.069702   1142.787598  -5625.000000     60.308479
    7626           0      1632.069702   1142.787598  -5875.000977     61.877712
    7627           0      1632.069702   1142.787598  -6125.000977     63.322037
    7628           0      1632.069702   1142.787598  -6375.000000     64.656990
    7629           0      1632.069702   1142.787598  -6625.000000     65.894821
    7630           0      1632.069702   1142.787598  -6875.000977     67.052834
    7631           0      1632.069702   1142.787598  -7124.999023     68.147224
    7632           0      1632.069702   1142.787598  -7374.998535     69.197479
    7633           0      1632.069702   1142.787598  -7625.000000     70.222649
    7634           0      1632.069702   1142.787598  -7875.000000     71.240593
    7635           0      1632.069702   1142.787598  -8124.999023     72.271820
    7636           0      1632.069702   1142.787598  -8374.999023     73.334045
    7637           0      1632.069702   1142.787598  -8625.000000     74.445259
    7638           0      1632.069702   1142.787598  -8875.000977     75.623451
    7639           0      1632.069702   1142.787598  -9125.000000     76.881805
    7640           0      1632.069702   1142.787598  -9374.998047     78.237984
    7641           0      1632.069702   1142.787598  -9625.000000     79.695366
    7642           0      1632.069702   1142.787598  -9875.000000     81.277122
    7643           0      1632.069702   1142.787598  -10125.00000     82.965385
    7644           0      1632.069702   1142.787598  -10375.00000     84.800247
    7645           0      1632.069702   1142.787598  -10624.99804     86.725914
    7646           0      1632.069702   1142.787598  -10875.00195     88.823242
    7647           0      1632.069702   1142.787598  -11125.00195     90.966789
    7648           0      1632.069702   1142.787598  -11375.00000     93.323845
    7649           0      1632.069702   1142.787598  -11625.00000     95.644333
    7650           0      1632.069702   1142.787598  -11875.00000     98.270592
    7651           0      1632.069702   1142.787598  -12125.00000    100.644455
    7652           0      1632.069702   1142.787598  -12375.00000    103.716888
    7653           0      1632.069702   1142.787598  -12625.00000    106.017548
    7654           0      1632.069702   1142.787598  -12874.99804    107.875076
    7655           0      1632.069702   1142.787598  -13124.99609    118.241859
    7656           0      1632.069702   1142.787598  -13374.99804    103.272812
    7657           0      1565.415771   1237.979248   -124.999992     17.449120
    7658           0      1565.415771   1237.979248   -375.000000     16.803513
    7659           0      1565.415771   1237.979248   -625.000000     15.853794
    7660           0      1565.415771   1237.979248   -874.999939     16.416134
    7661           0      1565.415771   1237.979248  -1125.000000     16.860905
    7662           0      1565.415771   1237.979248  -1375.000122     18.104671
    7663           0      1565.415771   1237.979248  -1625.000000     19.638861
    7664           0      1565.415771   1237.979248  -1874.999756     21.718010
    7665           0      1565.415771   1237.979248  -2125.000000     24.086231
    7666           0      1565.415771   1237.979248  -2375.000000     26.812023
    7667           0      1565.415771   1237.979248  -2625.000000     29.752899
    7668           0      1565.415771   1237.979248  -2874.999756     32.909275
    7669           0      1565.415771   1237.979248  -3125.000000     36.184414
    7670           0      1565.415771   1237.979248  -3375.000244     39.557400
    7671           0      1565.415771   1237.979248  -3625.000000     42.953934
    7672           0      1565.415771   1237.979248  -3875.000000     46.346447
    7673           0      1565.415771   1237.979248  -4125.000000     49.678341
    7674           0      1565.415771   1237.979248  -4375.000000     52.923512
    7675           0      1565.415771   1237.979248  -4625.000000     56.041809
    7676           0      1565.415771   1237.979248  -4875.000000     59.013531
    7677           0      1565.415771   1237.979248  -5125.000000     61.813438
    7678           0      1565.415771   1237.979248  -5375.000000     64.430626
    7679           0      1565.415771   1237.979248  -5625.000000     66.851814
    7680           0      1565.415771   1237.979248  -5875.000488     69.076050
    7681           0      1565.415771   1237.979248  -6125.000488     71.098450
    7682           0      1565.415771   1237.979248  -6375.000000     72.925522
    7683           0      1565.415771   1237.979248  -6625.000000     74.561859
    7684           0      1565.415771   1237.979370  -6875.000000     76.020554
    7685           0      1565.415771   1237.979370  -7124.999512     77.311592
    7686           0      1565.415771   1237.979370  -7374.999023     78.450890
    7687           0      1565.415771   1237.979370  -7625.000000     79.456520
    7688           0      1565.415771   1237.979370  -7875.000000     80.346909
    7689           0      1565.415771   1237.979370  -8125.000000     81.144997
    7690           0      1565.415771   1237.979370  -8375.000000     81.870506
    7691           0      1565.415771   1237.979370  -8625.000000     82.551186
    7692           0      1565.415771   1237.979370  -8875.000000     83.206688
    7693           0      1565.415771   1237.979370  -9125.000000     83.867012
    7694           0      1565.415771   1237.979370  -9375.000000     84.547440
    7695           0      1565.415771   1237.979370  -9625.000000     85.281708
    7696           0      1565.415771   1237.979370  -9875.000000     86.074638
    7697           0      1565.415771   1237.979370  -10124.99902     86.963043
    7698           0      1565.415771   1237.979370  -10374.99902     87.933266
    7699           0      1565.415771   1237.979370  -10625.00000     89.032463
    7700           0      1565.415771   1237.979370  -10875.00000     90.215027
    7701           0      1565.415771   1237.979370  -11125.00000     91.548393
    7702           0      1565.415771   1237.979370  -11375.00000     92.945961
    7703           0      1565.415771   1237.979370  -11625.00000     94.507332
    7704           0      1565.415771   1237.979370  -11875.00000     96.094574
    7705           0      1565.415771   1237.979370  -12125.00000     97.858627
    7706           0      1565.415771   1237.979370  -12374.99902     99.655754
    7707           0      1565.415771   1237.979370  -12625.00000    101.406799
    7708           0      1565.415771   1237.979370  -12874.99902    103.713272
    7709           0      1565.415771   1237.979370  -13124.99902    106.632904
    7710           0      1565.415771   1237.979370  -13374.99902    102.011925
    7711           0      1491.003052   1326.660889   -124.999985     19.015141
    7712           0      1491.003052   1326.660889   -375.000000     20.818941
    7713           0      1491.003052   1326.660889   -624.999939     17.560511
    7714           0      1491.003052   1326.660889   -875.000000     16.065296
    7715           0      1491.003052   1326.660889  -1125.000000     15.173576
    7716           0      1491.003052   1326.660889  -1375.000122     14.640068
    7717           0      1491.003052   1326.660889  -1625.000000     15.270009
    7718           0      1491.003052   1326.660889  -1874.999756     16.454119
    7719           0      1491.003052   1326.660889  -2125.000000     18.575262
    7720           0      1491.003052   1326.660889  -2375.000244     21.073330
    7721           0      1491.003052   1326.660889  -2624.999756     24.128265
    7722           0      1491.003052   1326.660889  -2874.999512     27.375877
    7723           0      1491.003052   1326.660889  -3124.999756     30.919203
    7724           0      1491.003052   1326.660889  -3375.000244     34.536861
    7725           0      1491.003052   1326.660889  -3625.000244     38.280117
    7726           0      1491.003052   1326.660889  -3875.000244     42.006653
    7727           0      1491.003052   1326.660889  -4125.000000     45.735573
    7728           0      1491.003052   1326.660889  -4375.000000     49.371956
    7729           0      1491.003052   1326.660889  -4625.000000     52.918915
    7730           0      1491.003052   1326.660889  -4875.000000     56.313496
    7731           0      1491.003052   1326.660889  -5124.999512     59.553757
    7732           0      1491.003052   1326.660889  -5374.999512     62.600498
    7733           0      1491.003052   1326.660889  -5625.000000     65.452194
    7734           0      1491.003052   1326.660889  -5875.000488     68.089088
    7735           0      1491.003052   1326.660889  -6125.000977     70.511833
    7736           0      1491.003052   1326.660889  -6375.000488     72.712883
    7737           0      1491.003052   1326.660889  -6625.000000     74.701324
    7738           0      1491.003052   1326.660889  -6875.000488     76.479286
    7739           0      1491.003052   1326.660889  -7124.999512     78.058098
    7740           0      1491.003052   1326.660889  -7374.999023     79.449913
    7741           0      1491.003052   1326.660889  -7625.000000     80.670181
    7742           0      1491.003052   1326.660889  -7875.000000     81.737778
    7743           0      1491.003052   1326.660889  -8124.999023     82.671066
    7744           0      1491.003052   1326.660889  -8374.999023     83.493843
    7745           0      1491.003052   1326.660889  -8625.000000     84.226593
    7746           0      1491.003052   1326.660889  -8875.000977     84.896484
    7747           0      1491.003052   1326.660889  -9125.000000     85.523254
    7748           0      1491.003052   1326.660889  -9374.999023     86.135147
    7749           0      1491.003052   1326.660889  -9625.000000     86.749069
    7750           0      1491.003052   1326.660889  -9875.000000     87.391991
    7751           0      1491.003052   1326.660889  -10125.00000     88.075317
    7752           0      1491.003052   1326.660889  -10375.00000     88.820602
    7753           0      1491.003052   1326.660889  -10624.99902     89.636055
    7754           0      1491.003052   1326.660889  -10875.00097     90.529373
    7755           0      1491.003052   1326.660889  -11125.00097     91.513092
    7756           0      1491.003052   1326.660889  -11375.00000     92.567894
    7757           0      1491.003052   1326.660889  -11625.00000     93.731766
    7758           0      1491.003052   1326.660889  -11875.00000     94.928230
    7759           0      1491.003052   1326.660889  -12125.00000     96.267220
    7760           0      1491.003052   1326.660889  -12374.99902     97.613052
    7761           0      1491.003052   1326.660889  -12625.00000     99.049927
    7762           0      1491.003052   1326.660889  -12874.99902    100.270752
    7763           0      1491.003052   1326.660889  -13124.99804    104.723900
    7764           0      1491.003052   1326.660889  -13374.99902     95.560738
    7765           0      1408.831787   1408.832031   -124.999985     22.197187
    7766           0      1408.831787   1408.832031   -374.999969     23.632063
    7767           0      1408.831787   1408.832031   -624.999939     19.531179
    7768           0      1408.831787   1408.832031   -874.999878     16.728962
    7769           0      1408.831787   1408.832031  -1124.999878     14.513626
    7770           0      1408.831787   1408.832031  -1375.000244     12.279044
    7771           0      1408.831787   1408.832031  -1625.000000     11.134625
    7772           0      1408.831787   1408.832031  -1874.999512     10.972306
    7773           0      1408.831787   1408.832031  -2125.000244     12.041719
    7774           0      1408.831787   1408.832031  -2375.000244     14.155902
    7775           0      1408.831787   1408.832031  -2624.999756     16.849382
    7776           0      1408.831787   1408.832031  -2874.999512     20.036592
    7777           0      1408.831787   1408.832031  -3124.999512     23.407473
    7778           0      1408.831787   1408.832031  -3375.000488     26.989927
    7779           0      1408.831787   1408.832031  -3625.000488     30.609882
    7780           0      1408.831787   1408.832031  -3875.000244     34.298729
    7781           0      1408.831787   1408.832031  -4125.000488     37.948769
    7782           0      1408.831787   1408.832031  -4375.000488     41.576042
    7783           0      1408.831787   1408.832031  -4625.000488     45.109524
    7784           0      1408.831787   1408.832031  -4874.999512     48.554688
    7785           0      1408.831787   1408.832031  -5124.999512     51.863846
    7786           0      1408.831787   1408.832031  -5374.999023     55.038776
    7787           0      1408.831787   1408.832031  -5625.000000     58.047489
    7788           0      1408.831787   1408.832031  -5875.000977     60.894085
    7789           0      1408.832031   1408.831909  -6125.000977     63.559227
    7790           0      1408.832031   1408.831909  -6375.000000     66.046989
    7791           0      1408.832031   1408.831909  -6625.000000     68.353310
    7792           0      1408.832031   1408.831909  -6875.000977     70.482063
    7793           0      1408.832031   1408.831909  -7124.999023     72.438744
    7794           0      1408.832031   1408.831909  -7374.998535     74.232536
    7795           0      1408.832031   1408.831909  -7625.000000     75.874115
    7796           0      1408.832031   1408.831909  -7875.000000     77.376167
    7797           0      1408.832031   1408.831909  -8124.999023     78.754349
    7798           0      1408.832031   1408.831909  -8374.999023     80.023209
    7799           0      1408.832031   1408.831909  -8625.000000     81.201157
    7800           0      1408.832031   1408.831909  -8875.000977     82.304314
    7801           0      1408.832031   1408.831909  -9125.000000     83.350510
    7802           0      1408.832031   1408.831909  -9374.998047     84.356972
    7803           0      1408.832031   1408.831909  -9625.000000     85.337227
    7804           0      1408.832031   1408.831909  -9875.000000     86.312584
    7805           0      1408.832031   1408.831909  -10125.00000     87.284256
    7806           0      1408.832031   1408.831909  -10375.00000     88.284157
    7807           0      1408.832031   1408.831909  -10624.99804     89.291367
    7808           0      1408.832031   1408.831909  -10875.00195     90.360107
    7809           0      1408.832031   1408.831909  -11125.00195     91.428879
    7810           0      1408.832031   1408.831909  -11375.00000     92.598083
    7811           0      1408.832031   1408.831909  -11625.00000     93.735054
    7812           0      1408.832031   1408.831909  -11875.00000     95.036644
    7813           0      1408.832031   1408.831909  -12125.00000     96.177269
    7814           0      1408.832031   1408.831909  -12375.00000     97.771286
    7815           0      1408.832031   1408.831909  -12625.00000     98.873032
    7816           0      1408.832031   1408.832031  -12874.99804     99.237930
    7817           0      1408.831909   1408.832031  -13124.99609    107.618851
    7818           0      1408.831909   1408.832031  -13374.99804     93.287369
    7819           0      1326.660767   1491.003174   -124.999992     27.424833
    7820           0      1326.660767   1491.003174   -375.000000     25.179140
    7821           0      1326.660767   1491.003174   -625.000000     20.940655
    7822           0      1326.660767   1491.003174   -874.999939     18.389349
    7823           0      1326.660767   1491.003174  -1125.000000     14.716905
    7824           0      1326.660767   1491.003174  -1375.000122     12.301410
    7825           0      1326.660767   1491.003174  -1625.000000      9.868032
    7826           0      1326.660767   1491.003174  -1874.999756      9.067470
    7827           0      1326.660767   1491.003174  -2125.000000      9.589570
    7828           0      1326.660767   1491.003174  -2375.000000     11.631964
    7829           0      1326.660767   1491.003174  -2625.000000     14.471694
    7830           0      1326.660767   1491.003174  -2874.999756     17.773350
    7831           0      1326.660767   1491.003174  -3125.000000     21.339352
    7832           0      1326.660767   1491.003174  -3375.000244     25.029369
    7833           0      1326.660767   1491.003174  -3625.000000     28.811562
    7834           0      1326.660767   1491.003174  -3875.000000     32.608170
    7835           0      1326.660767   1491.003174  -4125.000000     36.411457
    7836           0      1326.660767   1491.003174  -4375.000000     40.167797
    7837           0      1326.660767   1491.003174  -4625.000000     43.869114
    7838           0      1326.660767   1491.003174  -4875.000000     47.475662
    7839           0      1326.660767   1491.003174  -5125.000000     50.977417
    7840           0      1326.660767   1491.003174  -5375.000000     54.345680
    7841           0      1326.660767   1491.003174  -5625.000000     57.570183
    7842           0      1326.660767   1491.003174  -5875.000488     60.634026
    7843           0      1326.660767   1491.003174  -6125.000488     63.527950
    7844           0      1326.660767   1491.003174  -6375.000000     66.243416
    7845           0      1326.660767   1491.003174  -6625.000000     68.779655
    7846           0      1326.660767   1491.003174  -6875.000000     71.132797
    7847           0      1326.660767   1491.003174  -7124.999512     73.307854
    7848           0      1326.660767   1491.003174  -7374.999023     75.309654
    7849           0      1326.660767   1491.003174  -7625.000000     77.146851
    7850           0      1326.660767   1491.003174  -7875.000000     78.830780
    7851           0      1326.660767   1491.003174  -8125.000000     80.373970
    7852           0      1326.660767   1491.003174  -8375.000000     81.791603
    7853           0      1326.660767   1491.003174  -8625.000000     83.099213
    7854           0      1326.660767   1491.003174  -8875.000000     84.314491
    7855           0      1326.660767   1491.003174  -9125.000000     85.453819
    7856           0      1326.660767   1491.003174  -9375.000000     86.533905
    7857           0      1326.660767   1491.003174  -9625.000000     87.572701
    7858           0      1326.660767   1491.003174  -9875.000000     88.582100
    7859           0      1326.660767   1491.003174  -10124.99902     89.581497
    7860           0      1326.660767   1491.003174  -10374.99902     90.572098
    7861           0      1326.660767   1491.003174  -10625.00000     91.582489
    7862           0      1326.660767   1491.003174  -10875.00000     92.590530
    7863           0      1326.660767   1491.003174  -11125.00000     93.648621
    7864           0      1326.660767   1491.003174  -11375.00000     94.694084
    7865           0      1326.660767   1491.003174  -11625.00000     95.830475
    7866           0      1326.660767   1491.003174  -11875.00000     96.913666
    7867           0      1326.660767   1491.003174  -12125.00000     98.162529
    7868           0      1326.660767   1491.003174  -12374.99902     99.293175
    7869           0      1326.660767   1491.003174  -12625.00000    100.559219
    7870           0      1326.660767   1491.003174  -12874.99902    101.898712
    7871           0      1326.660767   1491.003174  -13124.99902    104.445702
    7872           0      1326.660767   1491.003174  -13374.99902     98.685669
    7873           0      1237.979248   1565.415771   -124.999985     26.851168
    7874           0      1237.979248   1565.415771   -375.000000     26.312466
    7875           0      1237.979248   1565.415771   -624.999939     21.467333
    7876           0      1237.979248   1565.415771   -875.000000     18.474142
    7877           0      1237.979248   1565.415771  -1125.000000     14.630608
    7878           0      1237.979248   1565.415771  -1375.000122     11.382512
    7879           0      1237.979248   1565.415771  -1625.000000      8.112760
    7880           0      1237.979248   1565.415771  -1874.999756      5.776360
    7881           0      1237.979248   1565.415771  -2125.000000      5.505803
    7882           0      1237.979248   1565.415771  -2375.000244      7.457779
    7883           0      1237.979248   1565.415771  -2624.999756     10.662539
    7884           0      1237.979248   1565.415771  -2874.999512     14.142012
    7885           0      1237.979248   1565.415771  -3124.999756     17.885532
    7886           0      1237.979248   1565.415771  -3375.000244     21.640648
    7887           0      1237.979248   1565.415771  -3625.000244     25.483263
    7888           0      1237.979248   1565.415771  -3875.000244     29.294577
    7889           0      1237.979248   1565.415771  -4125.000000     33.117470
    7890           0      1237.979248   1565.415771  -4375.000000     36.881264
    7891           0      1237.979248   1565.415771  -4625.000000     40.602757
    7892           0      1237.979248   1565.415771  -4875.000000     44.235355
    7893           0      1237.979248   1565.415771  -5124.999512     47.781460
    7894           0      1237.979248   1565.415771  -5374.999512     51.209476
    7895           0      1237.979248   1565.415771  -5625.000000     54.516224
    7896           0      1237.979248   1565.415771  -5875.000488     57.680553
    7897           0      1237.979248   1565.415771  -6125.000977     60.698254
    7898           0      1237.979248   1565.415771  -6375.000488     63.558212
    7899           0      1237.979248   1565.415771  -6625.000000     66.257782
    7900           0      1237.979248   1565.415771  -6875.000488     68.794266
    7901           0      1237.979248   1565.415771  -7124.999512     71.168907
    7902           0      1237.979248   1565.415771  -7374.999023     73.384605
    7903           0      1237.979248   1565.415771  -7625.000000     75.448669
    7904           0      1237.979248   1565.415771  -7875.000000     77.367905
    7905           0      1237.979248   1565.415771  -8124.999023     79.155151
    7906           0      1237.979248   1565.415771  -8374.999023     80.819450
    7907           0      1237.979248   1565.415771  -8625.000000     82.378403
    7908           0      1237.979248   1565.415771  -8875.000977     83.842247
    7909           0      1237.979248   1565.415771  -9125.000000     85.231651
    7910           0      1237.979248   1565.415771  -9374.999023     86.554512
    7911           0      1237.979248   1565.415771  -9625.000000     87.835022
    7912           0      1237.979248   1565.415771  -9875.000000     89.075554
    7913           0      1237.979248   1565.415771  -10125.00000     90.302658
    7914           0      1237.979248   1565.415771  -10375.00000     91.508568
    7915           0      1237.979248   1565.415771  -10624.99902     92.726624
    7916           0      1237.979248   1565.415771  -10875.00097     93.931732
    7917           0      1237.979248   1565.415771  -11125.00097     95.171013
    7918           0      1237.979248   1565.415771  -11375.00000     96.396118
    7919           0      1237.979248   1565.415771  -11625.00000     97.679398
    7920           0      1237.979248   1565.415771  -11875.00000     98.935265
    7921           0      1237.979248   1565.415771  -12125.00000    100.273376
    7922           0      1237.979248   1565.415771  -12374.99902    101.616272
    7923           0      1237.979248   1565.415771  -12625.00000    102.910728
    7924           0      1237.979248   1565.415771  -12874.99902    104.093781
    7925           0      1237.979248   1565.415771  -13124.99804    108.537018
    7926           0      1237.979248   1565.415771  -13374.99902     98.613045
    7927           0      1142.787476   1632.069824   -124.999985     23.962128
    7928           0      1142.787476   1632.069824   -374.999969     25.842789
    7929           0      1142.787476   1632.069824   -624.999939     21.086620
    7930           0      1142.787476   1632.069824   -874.999878     17.318636
    7931           0      1142.787476   1632.069824  -1124.999878     14.346826
    7932           0      1142.787476   1632.069824  -1375.000244     10.514363
    7933           0      1142.787476   1632.069824  -1625.000000      7.409922
    7934           0      1142.787476   1632.069824  -1874.999512      4.251242
    7935           0      1142.787476   1632.069824  -2125.000244      3.122998
    7936           0      1142.787476   1632.069824  -2375.000244      5.285675
    7937           0      1142.787476   1632.069824  -2624.999756      8.450821
    7938           0      1142.787476   1632.069824  -2874.999512     11.996986
    7939           0      1142.787476   1632.069824  -3124.999512     15.523698
    7940           0      1142.787476   1632.069824  -3375.000488     19.162264
    7941           0      1142.787476   1632.069824  -3625.000488     22.749014
    7942           0      1142.787476   1632.069824  -3875.000244     26.372940
    7943           0      1142.787476   1632.069824  -4125.000488     29.940796
    7944           0      1142.787476   1632.069824  -4375.000488     33.499939
    7945           0      1142.787476   1632.069824  -4625.000488     36.992317
    7946           0      1142.787476   1632.069824  -4874.999512     40.440441
    7947           0      1142.787476   1632.069824  -5124.999512     43.806095
    7948           0      1142.787476   1632.069824  -5374.999023     47.098770
    7949           0      1142.787476   1632.069824  -5625.000000     50.292744
    7950           0      1142.787476   1632.069824  -5875.000977     53.390862
    7951           0      1142.787476   1632.069824  -6125.000977     56.377254
    7952           0      1142.787476   1632.069824  -6375.000000     59.253143
    7953           0      1142.787476   1632.069824  -6625.000000     62.007977
    7954           0      1142.787354   1632.069824  -6875.000977     64.645912
    7955           0      1142.787354   1632.069824  -7124.999023     67.161896
    7956           0      1142.787354   1632.069824  -7374.998535     69.561096
    7957           0      1142.787354   1632.069824  -7625.000000     71.844650
    7958           0      1142.787354   1632.069824  -7875.000000     74.019966
    7959           0      1142.787354   1632.069824  -8124.999023     76.091911
    7960           0      1142.787354   1632.069824  -8374.999023     78.071075
    7961           0      1142.787354   1632.069824  -8625.000000     79.963791
    7962           0      1142.787354   1632.069824  -8875.000977     81.785034
    7963           0      1142.787354   1632.069824  -9125.000000     83.538513
    7964           0      1142.787354   1632.069824  -9374.998047     85.245125
    7965           0      1142.787354   1632.069824  -9625.000000     86.901413
    7966           0      1142.787354   1632.069824  -9875.000000     88.538414
    7967           0      1142.787354   1632.069824  -10125.00000     90.135521
    7968           0      1142.787354   1632.069824  -10375.00000     91.742935
    7969           0      1142.787354   1632.069824  -10624.99804     93.310745
    7970           0      1142.787354   1632.069824  -10875.00195     94.922760
    7971           0      1142.787354   1632.069824  -11125.00195     96.478317
    7972           0      1142.787354   1632.069824  -11375.00000     98.124733
    7973           0      1142.787354   1632.069824  -11625.00000     99.672646
    7974           0      1142.787354   1632.069824  -11875.00000    101.393410
    7975           0      1142.787354   1632.069824  -12125.00000    102.873741
    7976           0      1142.787354   1632.069824  -12375.00000    104.835678
    7977           0      1142.787354   1632.069824  -12625.00000    106.253235
    7978           0      1142.787354   1632.069824  -12874.99804    106.723320
    7979           0      1142.787354   1632.069824  -13124.99609    116.233246
    7980           0      1142.787476   1632.069824  -13374.99804    100.375298
    7981           0      1047.595825   1698.723877   -124.999992     23.717449
    7982           0      1047.595825   1698.723877   -375.000000     22.726625
    7983           0      1047.595825   1698.723877   -625.000000     18.510777
    7984           0      1047.595825   1698.723877   -874.999939     15.599888
    7985           0      1047.595825   1698.723877  -1125.000000     12.068316
    7986           0      1047.595825   1698.723877  -1375.000122      8.925260
    7987           0      1047.595825   1698.723877  -1625.000000      5.569071
    7988           0      1047.595825   1698.723877  -1874.999756      2.701449
    7989           0      1047.595825   1698.723877  -2125.000000      2.546748
    7990           0      1047.595825   1698.723877  -2375.000000      5.316648
    7991           0      1047.595825   1698.723877  -2625.000000      8.672463
    7992           0      1047.595825   1698.723877  -2874.999756     12.011469
    7993           0      1047.595825   1698.723877  -3125.000000     15.459941
    7994           0      1047.595825   1698.723877  -3375.000244     18.863607
    7995           0      1047.595825   1698.723877  -3625.000000     22.311413
    7996           0      1047.595825   1698.723877  -3875.000000     25.719200
    7997           0      1047.595825   1698.723877  -4125.000000     29.135487
    7998           0      1047.595825   1698.723877  -4375.000000     32.508652
    7999           0      1047.595825   1698.723877  -4625.000000     35.862530
    8000           0      1047.595825   1698.723877  -4875.000000     39.163361
    8001           0      1047.595825   1698.723877  -5125.000000     42.420708
    8002           0      1047.595825   1698.723877  -5375.000000     45.611794
    8003           0      1047.595825   1698.723877  -5625.000000     48.738937
    8004           0      1047.595825   1698.723877  -5875.000488     51.786972
    8005           0      1047.595825   1698.723877  -6125.000488     54.755783
    8006           0      1047.595825   1698.723877  -6375.000000     57.636368
    8007           0      1047.595825   1698.723877  -6625.000000     60.428448
    8008           0      1047.595825   1698.723877  -6875.000000     63.129028
    8009           0      1047.595703   1698.723877  -7124.999512     65.739586
    8010           0      1047.595703   1698.723877  -7374.999023     68.261108
    8011           0      1047.595703   1698.723877  -7625.000000     70.698410
    8012           0      1047.595703   1698.723877  -7875.000000     73.055634
    8013           0      1047.595703   1698.723877  -8125.000000     75.340256
    8014           0      1047.595703   1698.723877  -8375.000000     77.558228
    8015           0      1047.595703   1698.723877  -8625.000000     79.719276
    8016           0      1047.595703   1698.723877  -8875.000000     81.829323
    8017           0      1047.595703   1698.723877  -9125.000000     83.899849
    8018           0      1047.595703   1698.723877  -9375.000000     85.933144
    8019           0      1047.595703   1698.723877  -9625.000000     87.944557
    8020           0      1047.595703   1698.723877  -9875.000000     89.928711
    8021           0      1047.595703   1698.723877  -10124.99902     91.908211
    8022           0      1047.595703   1698.723877  -10374.99902     93.862244
    8023           0      1047.595703   1698.723877  -10625.00000     95.833946
    8024           0      1047.595703   1698.723877  -10875.00000     97.768684
    8025           0      1047.595703   1698.723877  -11125.00000     99.755142
    8026           0      1047.595703   1698.723877  -11375.00000    101.671638
    8027           0      1047.595703   1698.723877  -11625.00000    103.702057
    8028           0      1047.595703   1698.723877  -11875.00000    105.580963
    8029           0      1047.595703   1698.723877  -12125.00000    107.704552
    8030           0      1047.595703   1698.723877  -12374.99902    109.513588
    8031           0      1047.595703   1698.723877  -12625.00000    111.727768
    8032           0      1047.595703   1698.723877  -12874.99902    113.411095
    8033           0      1047.595703   1698.723877  -13124.99902    117.535446
    8034           0      1047.595825   1698.723877  -13374.99902    110.491180
    8035           0       947.339905   1756.606445   -124.999985     22.617373
    8036           0       947.339905   1756.606445   -375.000000     20.320679
    8037           0       947.339905   1756.606445   -624.999939     16.829741
    8038           0       947.339905   1756.606445   -875.000000     14.386662
    8039           0       947.339905   1756.606445  -1125.000000     11.030519
    8040           0       947.339905   1756.606445  -1375.000122      8.531005
    8041           0       947.339905   1756.606445  -1625.000000      5.743056
    8042           0       947.339905   1756.606445  -1874.999756      4.242731
    8043           0       947.339905   1756.606445  -2125.000000      4.534163
    8044           0       947.339905   1756.606445  -2375.000244      6.634569
    8045           0       947.339905   1756.606445  -2624.999756      9.391872
    8046           0       947.339905   1756.606445  -2874.999512     12.343038
    8047           0       947.339905   1756.606445  -3124.999756     15.434011
    8048           0       947.339905   1756.606445  -3375.000244     18.545849
    8049           0       947.339905   1756.606445  -3625.000244     21.710279
    8050           0       947.339905   1756.606445  -3875.000244     24.868929
    8051           0       947.339905   1756.606445  -4125.000000     28.044127
    8052           0       947.339905   1756.606445  -4375.000000     31.201918
    8053           0       947.339905   1756.606445  -4625.000000     34.352081
    8054           0       947.339905   1756.606445  -4875.000000     37.473148
    8055           0       947.339905   1756.606445  -5124.999512     40.566738
    8056           0       947.339905   1756.606445  -5374.999512     43.618881
    8057           0       947.339905   1756.606445  -5625.000000     46.627453
    8058           0       947.339905   1756.606445  -5875.000488     49.583332
    8059           0       947.339905   1756.606445  -6125.000977     52.484119
    8060           0       947.339905   1756.606445  -6375.000488     55.324848
    8061           0       947.339905   1756.606445  -6625.000000     58.104774
    8062           0       947.339905   1756.606445  -6875.000488     60.822880
    8063           0       947.339905   1756.606445  -7124.999512     63.481274
    8064           0       947.339905   1756.606445  -7374.999023     66.080803
    8065           0       947.339905   1756.606445  -7625.000000     68.628418
    8066           0       947.339905   1756.606445  -7875.000000     71.125130
    8067           0       947.339905   1756.606445  -8124.999023     73.582245
    8068           0       947.339905   1756.606445  -8374.999023     75.999046
    8069           0       947.339905   1756.606445  -8625.000000     78.390961
    8070           0       947.339905   1756.606445  -8875.000977     80.753525
    8071           0       947.339905   1756.606445  -9125.000000     83.106140
    8072           0       947.339905   1756.606445  -9374.999023     85.435989
    8073           0       947.339905   1756.606445  -9625.000000     87.770287
    8074           0       947.339905   1756.606445  -9875.000000     90.083817
    8075           0       947.339905   1756.606445  -10125.00000     92.415100
    8076           0       947.339905   1756.606445  -10375.00000     94.720108
    8077           0       947.339905   1756.606445  -10624.99902     97.060486
    8078           0       947.339905   1756.606445  -10875.00097     99.360245
    8079           0       947.339905   1756.606445  -11125.00097    101.720070
    8080           0       947.339905   1756.606445  -11375.00000    104.014519
    8081           0       947.339905   1756.606445  -11625.00000    106.407288
    8082           0       947.339905   1756.606445  -11875.00000    108.689354
    8083           0       947.339905   1756.606445  -12125.00000    111.125206
    8084           0       947.339905   1756.606445  -12374.99902    113.430283
    8085           0       947.339905   1756.606445  -12625.00000    115.827866
    8086           0       947.339905   1756.606445  -12874.99902    117.848495
    8087           0       947.339905   1756.606445  -13124.99804    123.728477
    8088           0       947.339905   1756.606445  -13374.99902    113.353714
    8089           0       842.020020   1805.718018   -124.999985     18.426258
    8090           0       842.020020   1805.718018   -374.999969     19.360514
    8091           0       842.020020   1805.718018   -624.999939     16.292545
    8092           0       842.020020   1805.718018   -874.999878     13.647086
    8093           0       842.020020   1805.718018  -1124.999878     11.807473
    8094           0       842.020020   1805.718018  -1375.000244      9.713588
    8095           0       842.020020   1805.718018  -1625.000000      8.493719
    8096           0       842.020020   1805.718018  -1874.999512      7.969473
    8097           0       842.020020   1805.718018  -2125.000244      8.471295
    8098           0       842.020020   1805.718018  -2375.000244      9.889369
    8099           0       842.020020   1805.718018  -2624.999756     11.804308
    8100           0       842.020020   1805.718018  -2874.999512     14.141575
    8101           0       842.020020   1805.718018  -3124.999512     16.618999
    8102           0       842.020020   1805.718018  -3375.000488     19.277397
    8103           0       842.020020   1805.718018  -3625.000488     21.976519
    8104           0       842.020020   1805.718018  -3875.000244     24.760006
    8105           0       842.020020   1805.718018  -4125.000488     27.553812
    8106           0       842.020020   1805.718018  -4375.000488     30.385303
    8107           0       842.020020   1805.718018  -4625.000488     33.212757
    8108           0       842.020020   1805.718018  -4874.999512     36.050858
    8109           0       842.020020   1805.718018  -5124.999512     38.874763
    8110           0       842.020020   1805.718018  -5374.999023     41.692066
    8111           0       842.020020   1805.718018  -5625.000000     44.487358
    8112           0       842.020020   1805.718018  -5875.000977     47.265217
    8113           0       842.020020   1805.718018  -6125.000977     50.016209
    8114           0       842.020020   1805.718018  -6375.000000     52.744129
    8115           0       842.020020   1805.718018  -6625.000000     55.443806
    8116           0       842.020020   1805.718018  -6875.000977     58.120567
    8117           0       842.020020   1805.718018  -7124.999023     60.771580
    8118           0       842.020020   1805.718018  -7374.998535     63.403378
    8119           0       842.020020   1805.718018  -7625.000000     66.015419
    8120           0       842.020020   1805.718018  -7875.000000     68.615814
    8121           0       842.020020   1805.718018  -8124.999023     71.203491
    8122           0       842.020020   1805.718018  -8374.999023     73.789177
    8123           0       842.020020   1805.718018  -8625.000000     76.368492
    8124           0       842.020020   1805.718018  -8875.000977     78.956940
    8125           0       842.020020   1805.718018  -9125.000000     81.541588
    8126           0       842.020020   1805.718018  -9374.998047     84.146629
    8127           0       842.020020   1805.718018  -9625.000000     86.745354
    8128           0       842.020020   1805.718018  -9875.000000     89.378654
    8129           0       842.020020   1805.718018  -10125.00000     91.993553
    8130           0       842.020020   1805.718018  -10375.00000     94.663399
    8131           0       842.020020   1805.718018  -10624.99804     97.291924
    8132           0       842.020020   1805.718018  -10875.00195    100.007988
    8133           0       842.020020   1805.718018  -11125.00195    102.640228
    8134           0       842.020020   1805.718018  -11375.00000    105.418251
    8135           0       842.020020   1805.718018  -11625.00000    108.035492
    8136           0       842.020020   1805.718018  -11875.00000    110.912956
    8137           0       842.019897   1805.718018  -12125.00000    113.426369
    8138           0       842.019897   1805.718018  -12375.00000    116.588417
    8139           0       842.019897   1805.718018  -12625.00000    119.003357
    8140           0       842.019897   1805.718018  -12874.99804    120.392136
    8141           0       842.019897   1805.718018  -13124.99609    132.346405
    8142           0       842.020020   1805.718018  -13374.99804    114.249214
    8143           0       736.700073   1854.829468   -124.999992     15.780057
    8144           0       736.700073   1854.829468   -375.000000     16.239862
    8145           0       736.700073   1854.829468   -625.000000     13.665921
    8146           0       736.700073   1854.829468   -874.999939     11.848920
    8147           0       736.700073   1854.829468  -1125.000000     10.377139
    8148           0       736.700073   1854.829468  -1375.000122      8.996587
    8149           0       736.700073   1854.829468  -1625.000000      8.397332
    8150           0       736.700073   1854.829468  -1874.999756      8.266813
    8151           0       736.700073   1854.829468  -2125.000000      9.069617
    8152           0       736.700073   1854.829468  -2375.000000     10.289912
    8153           0       736.700073   1854.829468  -2625.000000     12.066208
    8154           0       736.700073   1854.829468  -2874.999756     14.013865
    8155           0       736.700073   1854.829468  -3125.000000     16.221889
    8156           0       736.700073   1854.829468  -3375.000244     18.499254
    8157           0       736.700073   1854.829468  -3625.000000     20.907990
    8158           0       736.700073   1854.829468  -3875.000000     23.352957
    8159           0       736.700073   1854.829468  -4125.000000     25.871748
    8160           0       736.700073   1854.829468  -4375.000000     28.414593
    8161           0       736.700073   1854.829468  -4625.000000     31.002668
    8162           0       736.700073   1854.829468  -4875.000000     33.609280
    8163           0       736.700073   1854.829468  -5125.000000     36.245655
    8164           0       736.700073   1854.829468  -5375.000000     38.897636
    8165           0       736.700073   1854.829468  -5625.000000     41.571022
    8166           0       736.700073   1854.829468  -5875.000488     44.258995
    8167           0       736.700073   1854.829468  -6125.000488     46.964748
    8168           0       736.700073   1854.829468  -6375.000000     49.685505
    8169           0       736.700073   1854.829468  -6625.000000     52.423584
    8170           0       736.700073   1854.829468  -6875.000000     55.178928
    8171           0       736.700073   1854.829468  -7124.999512     57.953892
    8172           0       736.700073   1854.829468  -7374.999023     60.748634
    8173           0       736.700073   1854.829468  -7625.000000     63.566711
    8174           0       736.700073   1854.829468  -7875.000000     66.406944
    8175           0       736.700073   1854.829468  -8125.000000     69.273933
    8176           0       736.700073   1854.829468  -8375.000000     72.163925
    8177           0       736.700073   1854.829468  -8625.000000     75.083061
    8178           0       736.700073   1854.829468  -8875.000000     78.023796
    8179           0       736.700073   1854.829468  -9125.000000     80.995338
    8180           0       736.700073   1854.829468  -9375.000000     83.983223
    8181           0       736.700073   1854.829468  -9625.000000     87.004494
    8182           0       736.700073   1854.829468  -9875.000000     90.033409
    8183           0       736.700073   1854.829468  -10124.99902     93.101540
    8184           0       736.700073   1854.829468  -10374.99902     96.161736
    8185           0       736.700073   1854.829468  -10625.00000     99.277542
    8186           0       736.700073   1854.829468  -10875.00000    102.356430
    8187           0       736.700073   1854.829468  -11125.00000    105.525932
    8188           0       736.700073   1854.829468  -11375.00000    108.604942
    8189           0       736.700073   1854.829468  -11625.00000    111.847694
    8190           0       736.700073   1854.829468  -11875.00000    114.890182
    8191           0       736.700073   1854.829468  -12125.00000    118.253098
    8192           0       736.700073   1854.829468  -12374.99902    121.207947
    8193           0       736.700073   1854.829468  -12625.00000    124.725410
    8194           0       736.700073   1854.829468  -12874.99902    127.324661
    8195           0       736.700073   1854.829468  -13124.99902    133.657471
    8196           0       736.700073   1854.829468  -13374.99902    125.205605
    8197           0       627.916199   1894.423584   -124.999985     17.186972
    8198           0       627.916199   1894.423584   -375.000000     14.542842
    8199           0       627.916199   1894.423584   -624.999939     13.081540
    8200           0       627.916199   1894.423584   -875.000000     12.139055
    8201           0       627.916199   1894.423584  -1125.000000     10.797920
    8202           0       627.916199   1894.423584  -1375.000122     10.322020
    8203           0       627.916199   1894.423584  -1625.000000      9.902159
    8204           0       627.916199   1894.423584  -1874.999756     10.172832
    8205           0       627.916199   1894.423584  -2125.000000     10.783474
    8206           0       627.916199   1894.423584  -2375.000244     11.857561
    8207           0       627.916199   1894.423584  -2624.999756     13.226652
    8208           0       627.916199   1894.423584  -2874.999512     14.846151
    8209           0       627.916199   1894.423584  -3124.999756     16.651775
    8210           0       627.916199   1894.423584  -3375.000244     18.592352
    8211           0       627.916199   1894.423584  -3625.000244     20.649017
    8212           0       627.916199   1894.423584  -3875.000244     22.788561
    8213           0       627.916199   1894.423584  -4125.000000     25.007055
    8214           0       627.916199   1894.423584  -4375.000000     27.285597
    8215           0       627.916199   1894.423584  -4625.000000     29.624067
    8216           0       627.916199   1894.423584  -4875.000000     32.012760
    8217           0       627.916199   1894.423584  -5124.999512     34.452099
    8218           0       627.916199   1894.423584  -5374.999512     36.938030
    8219           0       627.916199   1894.423584  -5625.000000     39.470924
    8220           0       627.916199   1894.423584  -5875.000488     42.049732
    8221           0       627.916199   1894.423584  -6125.000977     44.675285
    8222           0       627.916199   1894.423584  -6375.000488     47.347546
    8223           0       627.916199   1894.423584  -6625.000000     50.067646
    8224           0       627.916199   1894.423584  -6875.000488     52.836155
    8225           0       627.916199   1894.423584  -7124.999512     55.654903
    8226           0       627.916199   1894.423584  -7374.999023     58.522274
    8227           0       627.916199   1894.423584  -7625.000000     61.442112
    8228           0       627.916199   1894.423584  -7875.000000     64.409294
    8229           0       627.916199   1894.423584  -8124.999023     67.429764
    8230           0       627.916199   1894.423584  -8374.999023     70.493446
    8231           0       627.916199   1894.423584  -8625.000000     73.609940
    8232           0       627.916199   1894.423584  -8875.000977     76.763092
    8233           0       627.916199   1894.423584  -9125.000000     79.968178
    8234           0       627.916199   1894.423584  -9374.999023     83.198837
    8235           0       627.916199   1894.423584  -9625.000000     86.483086
    8236           0       627.916199   1894.423584  -9875.000000     89.779083
    8237           0       627.916199   1894.423584  -10125.00000     93.134293
    8238           0       627.916199   1894.423584  -10375.00000     96.480972
    8239           0       627.916199   1894.423584  -10624.99902     99.903412
    8240           0       627.916199   1894.423584  -10875.00097    103.286011
    8241           0       627.916199   1894.423584  -11125.00097    106.776176
    8242           0       627.916199   1894.423584  -11375.00000    110.176994
    8243           0       627.916199   1894.423584  -11625.00000    113.745399
    8244           0       627.916199   1894.423584  -11875.00000    117.136978
    8245           0       627.916199   1894.423584  -12125.00000    120.804260
    8246           0       627.916199   1894.423584  -12374.99902    124.185158
    8247           0       627.916199   1894.423584  -12625.00000    127.907684
    8248           0       627.916199   1894.423584  -12874.99902    130.947098
    8249           0       627.916199   1894.423584  -13124.99804    138.229507
    8250           0       627.916199   1894.423584  -13374.99902    128.325134
    8251           0       515.668213   1924.500366   -124.999985     15.124628
    8252           0       515.668213   1924.500366   -374.999969     15.251149
    8253           0       515.668213   1924.500366   -624.999939     14.159853
    8254           0       515.668213   1924.500366   -874.999878     13.182652
    8255           0       515.668213   1924.500366  -1124.999878     12.635345
    8256           0       515.668213   1924.500366  -1375.000244     12.214384
    8257           0       515.668213   1924.500366  -1625.000000     12.125974
    8258           0       515.668213   1924.500366  -1874.999512     12.371140
    8259           0       515.668213   1924.500366  -2125.000244     12.877361
    8260           0       515.668213   1924.500366  -2375.000244     13.729943
    8261           0       515.668213   1924.500366  -2624.999756     14.774290
    8262           0       515.668213   1924.500366  -2874.999512     16.084682
    8263           0       515.668213   1924.500366  -3124.999512     17.528095
    8264           0       515.668213   1924.500366  -3375.000488     19.156151
    8265           0       515.668213   1924.500366  -3625.000488     20.881203
    8266           0       515.668213   1924.500366  -3875.000244     22.735619
    8267           0       515.668213   1924.500366  -4125.000488     24.668261
    8268           0       515.668213   1924.500366  -4375.000488     26.698393
    8269           0       515.668213   1924.500366  -4625.000488     28.797735
    8270           0       515.668213   1924.500366  -4874.999512     30.977825
    8271           0       515.668213   1924.500366  -5124.999512     33.223412
    8272           0       515.668213   1924.500366  -5374.999023     35.542061
    8273           0       515.668213   1924.500366  -5625.000000     37.925369
    8274           0       515.668213   1924.500366  -5875.000977     40.379066
    8275           0       515.668213   1924.500366  -6125.000977     42.898251
    8276           0       515.668213   1924.500366  -6375.000000     45.487259
    8277           0       515.668213   1924.500366  -6625.000000     48.142490
    8278           0       515.668213   1924.500366  -6875.000977     50.868542
    8279           0       515.668152   1924.500366  -7124.999023     53.661110
    8280           0       515.668152   1924.500366  -7374.998535     56.524250
    8281           0       515.668152   1924.500366  -7625.000000     59.452885
    8282           0       515.668152   1924.500366  -7875.000000     62.451435
    8283           0       515.668152   1924.500366  -8124.999023     65.511566
    8284           0       515.668152   1924.500366  -8374.999023     68.640259
    8285           0       515.668152   1924.500366  -8625.000000     71.823708
    8286           0       515.668152   1924.500366  -8875.000977     75.075294
    8287           0       515.668152   1924.500366  -9125.000000     78.370567
    8288           0       515.668152   1924.500366  -9374.998047     81.735283
    8289           0       515.668152   1924.500366  -9625.000000     85.128548
    8290           0       515.668152   1924.500366  -9875.000000     88.598984
    8291           0       515.668152   1924.500366  -10125.00000     92.073921
    8292           0       515.668152   1924.500366  -10375.00000     95.644402
    8293           0       515.668152   1924.500366  -10624.99804     99.183655
    8294           0       515.668152   1924.500366  -10875.00195    102.854576
    8295           0       515.668152   1924.500366  -11125.00195    106.434929
    8296           0       515.668152   1924.500366  -11375.00000    110.216301
    8297           0       515.668152   1924.500366  -11625.00000    113.805046
    8298           0       515.668152   1924.500366  -11875.00000    117.735489
    8299           0       515.668152   1924.500366  -12125.00000    121.220032
    8300           0       515.668152   1924.500366  -12375.00000    125.507164
    8301           0       515.668152   1924.500366  -12625.00000    128.882370
    8302           0       515.668152   1924.500366  -12874.99804    131.217880
    8303           0       515.668152   1924.500366  -13124.99609    145.301392
    8304           0       515.668152   1924.500366  -13374.99804    125.589897
    8305           0       403.420227   1954.577148   -124.999992     13.510832
    8306           0       403.420227   1954.577148   -375.000000     14.664287
    8307           0       403.420227   1954.577148   -625.000000     13.963241
    8308           0       403.420227   1954.577148   -874.999939     13.300782
    8309           0       403.420227   1954.577148  -1125.000000     13.240696
    8310           0       403.420227   1954.577148  -1375.000122     12.948045
    8311           0       403.420227   1954.577148  -1625.000000     13.173130
    8312           0       403.420227   1954.577148  -1874.999756     13.365043
    8313           0       403.420227   1954.577148  -2125.000000     13.956016
    8314           0       403.420227   1954.577148  -2375.000000     14.604322
    8315           0       403.420227   1954.577148  -2625.000000     15.554530
    8316           0       403.420227   1954.577148  -2874.999756     16.594519
    8317           0       403.420227   1954.577148  -3125.000000     17.855652
    8318           0       403.420227   1954.577148  -3375.000244     19.213131
    8319           0       403.420227   1954.577148  -3625.000000     20.735373
    8320           0       403.420227   1954.577148  -3875.000000     22.351933
    8321           0       403.420227   1954.577148  -4125.000000     24.098463
    8322           0       403.420227   1954.577148  -4375.000000     25.936577
    8323           0       403.420227   1954.577148  -4625.000000     27.884935
    8324           0       403.420227   1954.577148  -4875.000000     29.923582
    8325           0       403.420227   1954.577148  -5125.000000     32.062111
    8326           0       403.420227   1954.577148  -5375.000000     34.290905
    8327           0       403.420227   1954.577148  -5625.000000     36.614620
    8328           0       403.420227   1954.577148  -5875.000488     39.029194
    8329           0       403.420227   1954.577148  -6125.000488     41.536507
    8330           0       403.420227   1954.577148  -6375.000000     44.134594
    8331           0       403.420227   1954.577148  -6625.000000     46.823627
    8332           0       403.420227   1954.577148  -6875.000000     49.602402
    8333           0       403.420197   1954.577148  -7124.999512     52.470310
    8334           0       403.420197   1954.577148  -7374.999023     55.424400
    8335           0       403.420197   1954.577148  -7625.000000     58.464996
    8336           0       403.420197   1954.577148  -7875.000000     61.586414
    8337           0       403.420197   1954.577148  -8125.000000     64.790520
    8338           0       403.420197   1954.577148  -8375.000000     68.068260
    8339           0       403.420197   1954.577148  -8625.000000     71.424362
    8340           0       403.420197   1954.577148  -8875.000000     74.845520
    8341           0       403.420197   1954.577148  -9125.000000     78.341515
    8342           0       403.420197   1954.577148  -9375.000000     81.891289
    8343           0       403.420197   1954.577148  -9625.000000     85.514984
    8344           0       403.420197   1954.577148  -9875.000000     89.178589
    8345           0       403.420197   1954.577148  -10124.99902     92.919670
    8346           0       403.420197   1954.577148  -10374.99902     96.679848
    8347           0       403.420197   1954.577148  -10625.00000    100.532318
    8348           0       403.420197   1954.577148  -10875.00000    104.369362
    8349           0       403.420197   1954.577148  -11125.00000    108.332489
    8350           0       403.420197   1954.577148  -11375.00000    112.220741
    8351           0       403.420197   1954.577148  -11625.00000    116.306801
    8352           0       403.420197   1954.577148  -11875.00000    120.204559
    8353           0       403.420197   1954.577148  -12125.00000    124.447014
    8354           0       403.420197   1954.577148  -12374.99902    128.311905
    8355           0       403.420197   1954.577148  -12625.00000    132.737045
    8356           0       403.420197   1954.577148  -12874.99902    136.124496
    8357           0       403.420197   1954.577148  -13124.99902    144.282379
    8358           0       403.420197   1954.577148  -13374.99902    134.399338
    8359           0       289.413513   1974.679565   -124.999985     16.674589
    8360           0       289.413513   1974.679565   -375.000000     15.052778
    8361           0       289.413513   1974.679565   -624.999939     14.563407
    8362           0       289.413513   1974.679565   -875.000000     14.535554
    8363           0       289.413513   1974.679565  -1125.000000     14.174218
    8364           0       289.413513   1974.679565  -1375.000122     14.314307
    8365           0       289.413513   1974.679565  -1625.000000     14.359517
    8366           0       289.413513   1974.679565  -1874.999756     14.718534
    8367           0       289.413513   1974.679565  -2125.000000     15.139181
    8368           0       289.413513   1974.679565  -2375.000244     15.780485
    8369           0       289.413513   1974.679565  -2624.999756     16.542973
    8370           0       289.413513   1974.679565  -2874.999512     17.476887
    8371           0       289.413513   1974.679565  -3124.999756     18.544979
    8372           0       289.413513   1974.679565  -3375.000244     19.755634
    8373           0       289.413513   1974.679565  -3625.000244     21.095613
    8374           0       289.413513   1974.679565  -3875.000244     22.560339
    8375           0       289.413513   1974.679565  -4125.000000     24.145767
    8376           0       289.413513   1974.679565  -4375.000000     25.845516
    8377           0       289.413513   1974.679565  -4625.000000     27.658529
    8378           0       289.413513   1974.679565  -4875.000000     29.580154
    8379           0       289.413513   1974.679565  -5124.999512     31.609915
    8380           0       289.413513   1974.679565  -5374.999512     33.745438
    8381           0       289.413513   1974.679565  -5625.000000     35.986019
    8382           0       289.413513   1974.679565  -5875.000488     38.330624
    8383           0       289.413513   1974.679565  -6125.000977     40.778542
    8384           0       289.413513   1974.679565  -6375.000488     43.328625
    8385           0       289.413513   1974.679565  -6625.000000     45.980022
    8386           0       289.413513   1974.679565  -6875.000488     48.731384
    8387           0       289.413513   1974.679565  -7124.999512     51.582096
    8388           0       289.413513   1974.679565  -7374.999023     54.528210
    8389           0       289.413513   1974.679565  -7625.000000     57.571198
    8390           0       289.413513   1974.679565  -7875.000000     60.703690
    8391           0       289.413513   1974.679565  -8124.999023     63.929787
    8392           0       289.413513   1974.679565  -8374.999023     67.237534
    8393           0       289.413513   1974.679565  -8625.000000     70.635635
    8394           0       289.413513   1974.679565  -8875.000977     74.106361
    8395           0       289.413513   1974.679565  -9125.000000     77.665207
    8396           0       289.413513   1974.679565  -9374.999023     81.283775
    8397           0       289.413513   1974.679565  -9625.000000     84.991745
    8398           0       289.413513   1974.679565  -9875.000000     88.743309
    8399           0       289.413513   1974.679565  -10125.00000     92.590141
    8400           0       289.413513   1974.679565  -10375.00000     96.455826
    8401           0       289.413513   1974.679565  -10624.99902    100.435165
    8402           0       289.413544   1974.679565  -10875.00097    104.393417
    8403           0       289.413544   1974.679565  -11125.00097    108.502968
    8404           0       289.413544   1974.679565  -11375.00000    112.526474
    8405           0       289.413544   1974.679565  -11625.00000    116.775925
    8406           0       289.413544   1974.679565  -11875.00000    120.821472
    8407           0       289.413544   1974.679565  -12125.00000    125.241539
    8408           0       289.413544   1974.679565  -12374.99902    129.269791
    8409           0       289.413544   1974.679565  -12625.00000    133.845184
    8410           0       289.413544   1974.679565  -12874.99902    137.582993
    8411           0       289.413544   1974.679565  -13124.99804    145.389160
    8412           0       289.413513   1974.679565  -13374.99902    136.825668
    8413           0       173.648041   1984.807617   -124.999985     16.168049
    8414           0       173.648041   1984.807617   -374.999969     16.240168
    8415           0       173.648041   1984.807617   -624.999939     15.942644
    8416           0       173.648041   1984.807617   -874.999878     15.623241
    8417           0       173.648041   1984.807617  -1124.999878     15.491713
    8418           0       173.648041   1984.807617  -1375.000244     15.440659
    8419           0       173.648041   1984.807617  -1625.000000     15.493720
    8420           0       173.648041   1984.807617  -1874.999512     15.711073
    8421           0       173.648041   1984.807617  -2125.000244     16.017534
    8422           0       173.648041   1984.807617  -2375.000244     16.510717
    8423           0       173.648041   1984.807617  -2624.999756     17.101988
    8424           0       173.648056   1984.807617  -2874.999512     17.874964
    8425           0       173.648056   1984.807617  -3124.999512     18.756603
    8426           0       173.648056   1984.807617  -3375.000488     19.804838
    8427           0       173.648056   1984.807617  -3625.000488     20.967916
    8428           0       173.648056   1984.807617  -3875.000244     22.281059
    8429           0       173.648056   1984.807617  -4125.000488     23.711002
    8430           0       173.648056   1984.807617  -4375.000488     25.277472
    8431           0       173.648056   1984.807617  -4625.000488     26.960033
    8432           0       173.648056   1984.807617  -4874.999512     28.769188
    8433           0       173.648056   1984.807617  -5124.999512     30.692373
    8434           0       173.648056   1984.807617  -5374.999023     32.735245
    8435           0       173.648056   1984.807617  -5625.000000     34.889458
    8436           0       173.648056   1984.807617  -5875.000977     37.158363
    8437           0       173.648056   1984.807617  -6125.000977     39.535786
    8438           0       173.648056   1984.807617  -6375.000000     42.023598
    8439           0       173.648056   1984.807617  -6625.000000     44.616367
    8440           0       173.648056   1984.807617  -6875.000977     47.316410
    8441           0       173.648041   1984.807617  -7124.999023     50.117462
    8442           0       173.648041   1984.807617  -7374.998535     53.021763
    8443           0       173.648041   1984.807617  -7625.000000     56.022587
    8444           0       173.648041   1984.807617  -7875.000000     59.123257
    8445           0       173.648041   1984.807617  -8124.999023     62.314106
    8446           0       173.648041   1984.807617  -8374.999023     65.601860
    8447           0       173.648041   1984.807617  -8625.000000     68.971565
    8448           0       173.648041   1984.807617  -8875.000977     72.437248
    8449           0       173.648041   1984.807617  -9125.000000     75.972923
    8450           0       173.648041   1984.807617  -9374.998047     79.605934
    8451           0       173.648041   1984.807617  -9625.000000     83.292717
    8452           0       173.648041   1984.807617  -9875.000000     87.084747
    8453           0       173.648041   1984.807617  -10125.00000     90.904274
    8454           0       173.648041   1984.807617  -10375.00000     94.847641
    8455           0       173.648041   1984.807617  -10624.99804     98.778938
    8456           0       173.648056   1984.807617  -10875.00195    102.870720
    8457           0       173.648056   1984.807617  -11125.00195    106.884949
    8458           0       173.648056   1984.807617  -11375.00000    111.131844
    8459           0       173.648056   1984.807617  -11625.00000    115.188690
    8460           0       173.648056   1984.807617  -11875.00000    119.626450
    8461           0       173.648056   1984.807617  -12125.00000    123.602196
    8462           0       173.648056   1984.807617  -12375.00000    128.442581
    8463           0       173.648056   1984.807617  -12625.00000    132.325073
    8464           0       173.648056   1984.807617  -12874.99804    135.168350
    8465           0       173.648056   1984.807617  -13124.99609    150.185425
    8466           0       173.648041   1984.807617  -13374.99804    130.080643
    8467           0        57.882576   1994.935791   -124.999992     15.617774
    8468           0        57.882576   1994.935791   -375.000000     16.616781
    8469           0        57.882576   1994.935791   -625.000000     16.605089
    8470           0        57.882576   1994.935791   -874.999939     16.258345
    8471           0        57.882576   1994.935791  -1125.000000     16.459019
    8472           0        57.882576   1994.935791  -1375.000122     16.366728
    8473           0        57.882576   1994.935791  -1625.000000     16.666630
    8474           0        57.882576   1994.935791  -1874.999756     16.854708
    8475           0        57.882576   1994.935791  -2125.000000     17.327639
    8476           0        57.882576   1994.935791  -2375.000000     17.792294
    8477           0        57.882576   1994.935791  -2625.000000     18.480238
    8478           0        57.882576   1994.935791  -2874.999756     19.221205
    8479           0        57.882576   1994.935791  -3125.000000     20.146214
    8480           0        57.882576   1994.935791  -3375.000244     21.158758
    8481           0        57.882576   1994.935791  -3625.000000     22.329887
    8482           0        57.882576   1994.935791  -3875.000000     23.605566
    8483           0        57.882576   1994.935791  -4125.000000     25.022842
    8484           0        57.882576   1994.935791  -4375.000000     26.551592
    8485           0        57.882576   1994.935791  -4625.000000     28.210073
    8486           0        57.882576   1994.935791  -4875.000000     29.981586
    8487           0        57.882576   1994.935791  -5125.000000     31.874086
    8488           0        57.882576   1994.935791  -5375.000000     33.878399
    8489           0        57.882576   1994.935791  -5625.000000     35.997044
    8490           0        57.882576   1994.935791  -5875.000488     38.225266
    8491           0        57.882576   1994.935791  -6125.000488     40.563049
    8492           0        57.882576   1994.935791  -6375.000000     43.007614
    8493           0        57.882576   1994.935791  -6625.000000     45.557858
    8494           0        57.882568   1994.935791  -6875.000000     48.212402
    8495           0        57.882565   1994.935791  -7124.999512     50.970451
    8496           0        57.882565   1994.935791  -7374.999023     53.829483
    8497           0        57.882565   1994.935791  -7625.000000     56.790554
    8498           0        57.882565   1994.935791  -7875.000000     59.849072
    8499           0        57.882565   1994.935791  -8125.000000     63.008236
    8500           0        57.882565   1994.935791  -8375.000000     66.260246
    8501           0        57.882565   1994.935791  -8625.000000     69.611420
    8502           0        57.882565   1994.935791  -8875.000000     73.049416
    8503           0        57.882565   1994.935791  -9125.000000     76.585350
    8504           0        57.882565   1994.935791  -9375.000000     80.198563
    8505           0        57.882565   1994.935791  -9625.000000     83.909943
    8506           0        57.882565   1994.935791  -9875.000000     87.685394
    8507           0        57.882565   1994.935791  -10124.99902     91.562119
    8508           0        57.882565   1994.935791  -10374.99902     95.482063
    8509           0        57.882565   1994.935791  -10625.00000     99.515625
    8510           0        57.882565   1994.935791  -10875.00000    103.558273
    8511           0        57.882565   1994.935791  -11125.00000    107.742546
    8512           0        57.882565   1994.935791  -11375.00000    111.880127
    8513           0        57.882565   1994.935791  -11625.00000    116.218811
    8514           0        57.882565   1994.935791  -11875.00000    120.410446
    8515           0        57.882565   1994.935791  -12125.00000    124.918053
    8516           0        57.882565   1994.935791  -12374.99902    129.143707
    8517           0        57.882565   1994.935791  -12625.00000    133.819061
    8518           0        57.882565   1994.935791  -12874.99902    137.493820
    8519           0        57.882565   1994.935791  -13124.99902    146.641876
    8520           0        57.882568   1994.935791  -13374.99902    135.438705
    8521           0       -57.882874   1994.935791   -124.999985     18.987305
    8522           0       -57.882874   1994.935791   -375.000000     17.535492
    8523           0       -57.882874   1994.935791   -624.999939     17.300491
    8524           0       -57.882874   1994.935791   -875.000000     17.444176
    8525           0       -57.882874   1994.935791  -1125.000000     17.200500
    8526           0       -57.882874   1994.935791  -1375.000122     17.428570
    8527           0       -57.882874   1994.935791  -1625.000000     17.486961
    8528           0       -57.882874   1994.935791  -1874.999756     17.823597
    8529           0       -57.882874   1994.935791  -2125.000000     18.152239
    8530           0       -57.882874   1994.935791  -2375.000244     18.671383
    8531           0       -57.882874   1994.935791  -2624.999756     19.259426
    8532           0       -57.882874   1994.935791  -2874.999512     20.000149
    8533           0       -57.882874   1994.935791  -3124.999756     20.845425
    8534           0       -57.882874   1994.935791  -3375.000244     21.826670
    8535           0       -57.882874   1994.935791  -3625.000244     22.926731
    8536           0       -57.882874   1994.935791  -3875.000244     24.154333
    8537           0       -57.882874   1994.935791  -4125.000000     25.504347
    8538           0       -57.882874   1994.935791  -4375.000000     26.976767
    8539           0       -57.882874   1994.935791  -4625.000000     28.570095
    8540           0       -57.882874   1994.935791  -4875.000000     30.281824
    8541           0       -57.882874   1994.935791  -5124.999512     32.110859
    8542           0       -57.882874   1994.935791  -5374.999512     34.054790
    8543           0       -57.882874   1994.935791  -5625.000000     36.112064
    8544           0       -57.882874   1994.935791  -5875.000488     38.280918
    8545           0       -57.882874   1994.935791  -6125.000977     40.559772
    8546           0       -57.882874   1994.935791  -6375.000488     42.946976
    8547           0       -57.882874   1994.935791  -6625.000000     45.441280
    8548           0       -57.882881   1994.935791  -6875.000488     48.041142
    8549           0       -57.882881   1994.935791  -7124.999512     50.746410
    8550           0       -57.882881   1994.935791  -7374.999023     53.553844
    8551           0       -57.882881   1994.935791  -7625.000000     56.465363
    8552           0       -57.882881   1994.935791  -7875.000000     59.475166
    8553           0       -57.882881   1994.935791  -8124.999023     62.588058
    8554           0       -57.882881   1994.935791  -8374.999023     65.793800
    8555           0       -57.882881   1994.935791  -8625.000000     69.101570
    8556           0       -57.882881   1994.935791  -8875.000977     72.495430
    8557           0       -57.882881   1994.935791  -9125.000000     75.990662
    8558           0       -57.882881   1994.935791  -9374.999023     79.560638
    8559           0       -57.882881   1994.935791  -9625.000000     83.233971
    8560           0       -57.882881   1994.935791  -9875.000000     86.966446
    8561           0       -57.882881   1994.935791  -10125.00000     90.808136
    8562           0       -57.882881   1994.935791  -10375.00000     94.683540
    8563           0       -57.882881   1994.935791  -10624.99902     98.686546
    8564           0       -57.882881   1994.935791  -10875.00097    102.680717
    8565           0       -57.882885   1994.935791  -11125.00097    106.841545
    8566           0       -57.882889   1994.935791  -11375.00000    110.922691
    8567           0       -57.882889   1994.935791  -11625.00000    115.250633
    8568           0       -57.882889   1994.935791  -11875.00000    119.367279
    8569           0       -57.882889   1994.935791  -12125.00000    123.901047
    8570           0       -57.882889   1994.935791  -12374.99902    127.985756
    8571           0       -57.882889   1994.935791  -12625.00000    132.730759
    8572           0       -57.882889   1994.935791  -12874.99902    136.629211
    8573           0       -57.882889   1994.935791  -13124.99804    143.924164
    8574           0       -57.882881   1994.935791  -13374.99902    137.201584
    8575           0      -173.648315   1984.807617   -124.999985     18.887501
    8576           0      -173.648315   1984.807617   -374.999969     18.994476
    8577           0      -173.648315   1984.807617   -624.999939     18.898106
    8578           0      -173.648315   1984.807617   -874.999878     18.523031
    8579           0      -173.648300   1984.807617  -1124.999878     18.483477
    8580           0      -173.648300   1984.807617  -1375.000244     18.405455
    8581           0      -173.648300   1984.807617  -1625.000000     18.461563
    8582           0      -173.648300   1984.807617  -1874.999512     18.617943
    8583           0      -173.648300   1984.807617  -2125.000244     18.864443
    8584           0      -173.648300   1984.807617  -2375.000244     19.251167
    8585           0      -173.648300   1984.807617  -2624.999756     19.728020
    8586           0      -173.648300   1984.807617  -2874.999512     20.354872
    8587           0      -173.648300   1984.807617  -3124.999512     21.081251
    8588           0      -173.648300   1984.807617  -3375.000488     21.955244
    8589           0      -173.648300   1984.807617  -3625.000488     22.937605
    8590           0      -173.648300   1984.807617  -3875.000244     24.060595
    8591           0      -173.648285   1984.807617  -4125.000488     25.297358
    8592           0      -173.648285   1984.807617  -4375.000488     26.667397
    8593           0      -173.648285   1984.807617  -4625.000488     28.153376
    8594           0      -173.648285   1984.807617  -4874.999512     29.766333
    8595           0      -173.648285   1984.807617  -5124.999512     31.495205
    8596           0      -173.648285   1984.807617  -5374.999023     33.346256
    8597           0      -173.648285   1984.807617  -5625.000000     35.311932
    8598           0      -173.648285   1984.807617  -5875.000977     37.396038
    8599           0      -173.648285   1984.807617  -6125.000977     39.592876
    8600           0      -173.648285   1984.807617  -6375.000000     41.904526
    8601           0      -173.648285   1984.807617  -6625.000000     44.326176
    8602           0      -173.648285   1984.807617  -6875.000977     46.859531
    8603           0      -173.648285   1984.807617  -7124.999023     49.499084
    8604           0      -173.648285   1984.807617  -7374.998535     52.246883
    8605           0      -173.648285   1984.807617  -7625.000000     55.095840
    8606           0      -173.648285   1984.807617  -7875.000000     58.049240
    8607           0      -173.648285   1984.807617  -8124.999023     61.097363
    8608           0      -173.648270   1984.807617  -8374.999023     64.246162
    8609           0      -173.648254   1984.807617  -8625.000000     67.481033
    8610           0      -173.648254   1984.807617  -8875.000977     70.814697
    8611           0      -173.648254   1984.807617  -9125.000000     74.222099
    8612           0      -173.648254   1984.807617  -9374.998047     77.728516
    8613           0      -173.648254   1984.807617  -9625.000000     81.292358
    8614           0      -173.648254   1984.807617  -9875.000000     84.961670
    8615           0      -173.648254   1984.807617  -10125.00000     88.662727
    8616           0      -173.648254   1984.807617  -10375.00000     92.485863
    8617           0      -173.648254   1984.807617  -10624.99804     96.302856
    8618           0      -173.648254   1984.807617  -10875.00195    100.275398
    8619           0      -173.648254   1984.807617  -11125.00195    104.180016
    8620           0      -173.648254   1984.807617  -11375.00000    108.306740
    8621           0      -173.648254   1984.807617  -11625.00000    112.260414
    8622           0      -173.648254   1984.807617  -11875.00000    116.573624
    8623           0      -173.648254   1984.807617  -12125.00000    120.459526
    8624           0      -173.648254   1984.807617  -12375.00000    125.156693
    8625           0      -173.648239   1984.807617  -12625.00000    128.973511
    8626           0      -173.648239   1984.807617  -12874.99804    131.739059
    8627           0      -173.648239   1984.807617  -13124.99609    146.260452
    8628           0      -173.648285   1984.807617  -13374.99804    127.064461
    8629           0      -289.413757   1974.679443   -124.999992     18.916800
    8630           0      -289.413757   1974.679443   -375.000000     19.872288
    8631           0      -289.413757   1974.679443   -625.000000     19.705593
    8632           0      -289.413757   1974.679443   -874.999939     19.318607
    8633           0      -289.413757   1974.679443  -1125.000000     19.372770
    8634           0      -289.413757   1974.679443  -1375.000122     19.196100
    8635           0      -289.413757   1974.679443  -1625.000000     19.373896
    8636           0      -289.413757   1974.679443  -1874.999756     19.457367
    8637           0      -289.413757   1974.679443  -2125.000000     19.813654
    8638           0      -289.413757   1974.679443  -2375.000000     20.164301
    8639           0      -289.413757   1974.679443  -2625.000000     20.733877
    8640           0      -289.413757   1974.679443  -2874.999756     21.353434
    8641           0      -289.413757   1974.679443  -3125.000000     22.153904
    8642           0      -289.413757   1974.679443  -3375.000244     23.036428
    8643           0      -289.413757   1974.679443  -3625.000000     24.073406
    8644           0      -289.413727   1974.679443  -3875.000000     25.208494
    8645           0      -289.413727   1974.679443  -4125.000000     26.479988
    8646           0      -289.413727   1974.679443  -4375.000000     27.856585
    8647           0      -289.413727   1974.679443  -4625.000000     29.357767
    8648           0      -289.413727   1974.679443  -4875.000000     30.966808
    8649           0      -289.413727   1974.679443  -5125.000000     32.693085
    8650           0      -289.413727   1974.679443  -5375.000000     34.528229
    8651           0      -289.413727   1974.679443  -5625.000000     36.476257
    8652           0      -289.413727   1974.679443  -5875.000488     38.533451
    8653           0      -289.413727   1974.679443  -6125.000488     40.701118
    8654           0      -289.413727   1974.679443  -6375.000000     42.977058
    8655           0      -289.413727   1974.679443  -6625.000000     45.361160
    8656           0      -289.413727   1974.679443  -6875.000000     47.851791
    8657           0      -289.413727   1974.679443  -7124.999512     50.447838
    8658           0      -289.413727   1974.679443  -7374.999023     53.146549
    8659           0      -289.413727   1974.679443  -7625.000000     55.947437
    8660           0      -289.413727   1974.679443  -7875.000000     58.844917
    8661           0      -289.413727   1974.679443  -8125.000000     61.840416
    8662           0      -289.413696   1974.679443  -8375.000000     64.924751
    8663           0      -289.413696   1974.679443  -8625.000000     68.102264
    8664           0      -289.413696   1974.679443  -8875.000000     71.359604
    8665           0      -289.413696   1974.679443  -9125.000000     74.705826
    8666           0      -289.413696   1974.679443  -9375.000000     78.120232
    8667           0      -289.413696   1974.679443  -9625.000000     81.621216
    8668           0      -289.413696   1974.679443  -9875.000000     85.176682
    8669           0      -289.413696   1974.679443  -10124.99902     88.819519
    8670           0      -289.413696   1974.679443  -10374.99902     92.497879
    8671           0      -289.413696   1974.679443  -10625.00000     96.272606
    8672           0      -289.413696   1974.679443  -10875.00000    100.054451
    8673           0      -289.413696   1974.679443  -11125.00000    103.953880
    8674           0      -289.413696   1974.679443  -11375.00000    107.817085
    8675           0      -289.413666   1974.679443  -11625.00000    111.842133
    8676           0      -289.413666   1974.679443  -11875.00000    115.757759
    8677           0      -289.413666   1974.679443  -12125.00000    119.909126
    8678           0      -289.413666   1974.679443  -12374.99902    123.891747
    8679           0      -289.413666   1974.679443  -12625.00000    128.142288
    8680           0      -289.413666   1974.679443  -12874.99902    131.513504
    8681           0      -289.413666   1974.679443  -13124.99902    140.673248
    8682           0      -289.413727   1974.679443  -13374.99902    128.471008
    8683           0      -403.420471   1954.577026   -124.999985     23.634373
    8684           0      -403.420471   1954.577026   -375.000000     21.259123
    8685           0      -403.420471   1954.577026   -624.999939     21.084936
    8686           0      -403.420471   1954.577026   -875.000000     20.966635
    8687           0      -403.420471   1954.577026  -1125.000000     20.434101
    8688           0      -403.420471   1954.577026  -1375.000122     20.497730
    8689           0      -403.420471   1954.577026  -1625.000000     20.319323
    8690           0      -403.420471   1954.577026  -1874.999756     20.503748
    8691           0      -403.420471   1954.577026  -2125.000000     20.654116
    8692           0      -403.420471   1954.577026  -2375.000244     21.047972
    8693           0      -403.420471   1954.577026  -2624.999756     21.505230
    8694           0      -403.420471   1954.577026  -2874.999512     22.147167
    8695           0      -403.420471   1954.577026  -3124.999756     22.894653
    8696           0      -403.420471   1954.577026  -3375.000244     23.793932
    8697           0      -403.420471   1954.577026  -3625.000244     24.811689
    8698           0      -403.420471   1954.577026  -3875.000244     25.960760
    8699           0      -403.420471   1954.577026  -4125.000000     27.227903
    8700           0      -403.420471   1954.577026  -4375.000000     28.613209
    8701           0      -403.420471   1954.577026  -4625.000000     30.111727
    8702           0      -403.420471   1954.577026  -4875.000000     31.720301
    8703           0      -403.420471   1954.577026  -5124.999512     33.437126
    8704           0      -403.420471   1954.577026  -5374.999512     35.259491
    8705           0      -403.420471   1954.577026  -5625.000000     37.186466
    8706           0      -403.420471   1954.577026  -5875.000488     39.216328
    8707           0      -403.420471   1954.577026  -6125.000977     41.348438
    8708           0      -403.420471   1954.577026  -6375.000488     43.581200
    8709           0      -403.420471   1954.577026  -6625.000000     45.913826
    8710           0      -403.420471   1954.577026  -6875.000488     48.344662
    8711           0      -403.420471   1954.577026  -7124.999512     50.872715
    8712           0      -403.420471   1954.577026  -7374.999023     53.494251
    8713           0      -403.420471   1954.577026  -7625.000000     56.209923
    8714           0      -403.420471   1954.577026  -7875.000000     59.012718
    8715           0      -403.420471   1954.577026  -8124.999023     61.905205
    8716           0      -403.420471   1954.577026  -8374.999023     64.876602
    8717           0      -403.420471   1954.577026  -8625.000000     67.932884
    8718           0      -403.420471   1954.577026  -8875.000977     71.058586
    8719           0      -403.420471   1954.577026  -9125.000000     74.265038
    8720           0      -403.420471   1954.577026  -9374.999023     77.528069
    8721           0      -403.420471   1954.577026  -9625.000000     80.871040
    8722           0      -403.420471   1954.577026  -9875.000000     84.255058
    8723           0      -403.420471   1954.577026  -10125.00000     87.722946
    8724           0      -403.420471   1954.577026  -10375.00000     91.208565
    8725           0      -403.420471   1954.577026  -10624.99902     94.794998
    8726           0      -403.420471   1954.577026  -10875.00097     98.360565
    8727           0      -403.420471   1954.577026  -11125.00097    102.065041
    8728           0      -403.420471   1954.577026  -11375.00000    105.682938
    8729           0      -403.420471   1954.577026  -11625.00000    109.519547
    8730           0      -403.420471   1954.577026  -11875.00000    113.142136
    8731           0      -403.420471   1954.577026  -12125.00000    117.161003
    8732           0      -403.420471   1954.577026  -12374.99902    120.708176
    8733           0      -403.420471   1954.577026  -12625.00000    124.934433
    8734           0      -403.420471   1954.577026  -12874.99902    128.400970
    8735           0      -403.420471   1954.577026  -13124.99804    134.266266
    8736           0      -403.420471   1954.577026  -13374.99902    129.512970
    8737           0      -515.668457   1924.500244   -124.999985     24.178408
    8738           0      -515.668457   1924.500244   -374.999969     24.507786
    8739           0      -515.668457   1924.500244   -624.999939     23.987106
    8740           0      -515.668457   1924.500244   -874.999878     23.080517
    8741           0      -515.668457   1924.500244  -1124.999878     22.832325
    8742           0      -515.668457   1924.500244  -1375.000244     22.378139
    8743           0      -515.668457   1924.500244  -1625.000000     22.232048
    8744           0      -515.668457   1924.500244  -1874.999512     22.155342
    8745           0      -515.668457   1924.500244  -2125.000244     22.270166
    8746           0      -515.668457   1924.500244  -2375.000244     22.540688
    8747           0      -515.668457   1924.500244  -2624.999756     22.967476
    8748           0      -515.668457   1924.500244  -2874.999512     23.570951
    8749           0      -515.668457   1924.500244  -3124.999512     24.313417
    8750           0      -515.668457   1924.500244  -3375.000488     25.223047
    8751           0      -515.668457   1924.500244  -3625.000488     26.257603
    8752           0      -515.668457   1924.500244  -3875.000244     27.437963
    8753           0      -515.668457   1924.500244  -4125.000488     28.729740
    8754           0      -515.668457   1924.500244  -4375.000488     30.145548
    8755           0      -515.668457   1924.500244  -4625.000488     31.660938
    8756           0      -515.668457   1924.500244  -4874.999512     33.282890
    8757           0      -515.668457   1924.500244  -5124.999512     34.995239
    8758           0      -515.668457   1924.500244  -5374.999023     36.802120
    8759           0      -515.668457   1924.500244  -5625.000000     38.693012
    8760           0      -515.668457   1924.500244  -5875.000977     40.670975
    8761           0      -515.668457   1924.500244  -6125.000977     42.728989
    8762           0      -515.668457   1924.500244  -6375.000000     44.869446
    8763           0      -515.668457   1924.500244  -6625.000000     47.087162
    8764           0      -515.668457   1924.500244  -6875.000977     49.385170
    8765           0      -515.668457   1924.500244  -7124.999023     51.758316
    8766           0      -515.668457   1924.500244  -7374.998535     54.209286
    8767           0      -515.668457   1924.500244  -7625.000000     56.732880
    8768           0      -515.668457   1924.500244  -7875.000000     59.332340
    8769           0      -515.668457   1924.500244  -8124.999023     61.999767
    8770           0      -515.668457   1924.500244  -8374.999023     64.740601
    8771           0      -515.668457   1924.500244  -8625.000000     67.542473
    8772           0      -515.668457   1924.500244  -8875.000977     70.416138
    8773           0      -515.668457   1924.500244  -9125.000000     73.340279
    8774           0      -515.668457   1924.500244  -9374.998047     76.335762
    8775           0      -515.668457   1924.500244  -9625.000000     79.367805
    8776           0      -515.668457   1924.500244  -9875.000000     82.475960
    8777           0      -515.668457   1924.500244  -10125.00000     85.599442
    8778           0      -515.668457   1924.500244  -10375.00000     88.812386
    8779           0      -515.668457   1924.500244  -10624.99804     92.010666
    8780           0      -515.668457   1924.500244  -10875.00195     95.325447
    8781           0      -515.668457   1924.500244  -11125.00195     98.577759
    8782           0      -515.668457   1924.500244  -11375.00000    101.999779
    8783           0      -515.668457   1924.500244  -11625.00000    105.278694
    8784           0      -515.668457   1924.500244  -11875.00000    108.836166
    8785           0      -515.668457   1924.500244  -12125.00000    112.050339
    8786           0      -515.668457   1924.500244  -12375.00000    115.907318
    8787           0      -515.668457   1924.500244  -12625.00000    119.084892
    8788           0      -515.668457   1924.500244  -12874.99804    121.180916
    8789           0      -515.668457   1924.500244  -13124.99609    133.786484
    8790           0      -515.668457   1924.500244  -13374.99804    116.776871
    8791           0      -627.916382   1894.423340   -124.999992     25.513418
    8792           0      -627.916382   1894.423340   -375.000000     26.849226
    8793           0      -627.916382   1894.423340   -625.000000     25.595743
    8794           0      -627.916382   1894.423340   -874.999939     24.804626
    8795           0      -627.916382   1894.423340  -1125.000000     24.232040
    8796           0      -627.916382   1894.423340  -1375.000122     23.589809
    8797           0      -627.916382   1894.423340  -1625.000000     23.296366
    8798           0      -627.916382   1894.423340  -1874.999756     23.002741
    8799           0      -627.916382   1894.423340  -2125.000000     23.037806
    8800           0      -627.916382   1894.423340  -2375.000000     23.142958
    8801           0      -627.916382   1894.423340  -2625.000000     23.543606
    8802           0      -627.916382   1894.423340  -2874.999756     24.058186
    8803           0      -627.916382   1894.423340  -3125.000000     24.823137
    8804           0      -627.916382   1894.423340  -3375.000244     25.717207
    8805           0      -627.916382   1894.423340  -3625.000000     26.813145
    8806           0      -627.916382   1894.423340  -3875.000000     28.032814
    8807           0      -627.916382   1894.423340  -4125.000000     29.410530
    8808           0      -627.916382   1894.423340  -4375.000000     30.897528
    8809           0      -627.916382   1894.423340  -4625.000000     32.507740
    8810           0      -627.916382   1894.423340  -4875.000000     34.211643
    8811           0      -627.916443   1894.423340  -5125.000000     36.013252
    8812           0      -627.916443   1894.423340  -5375.000000     37.895260
    8813           0      -627.916443   1894.423340  -5625.000000     39.857361
    8814           0      -627.916443   1894.423340  -5875.000488     41.889969
    8815           0      -627.916443   1894.423340  -6125.000488     43.991562
    8816           0      -627.916443   1894.423340  -6375.000000     46.156761
    8817           0      -627.916443   1894.423340  -6625.000000     48.384144
    8818           0      -627.916443   1894.423340  -6875.000000     50.671078
    8819           0      -627.916443   1894.423340  -7124.999512     53.017052
    8820           0      -627.916443   1894.423340  -7374.999023     55.419289
    8821           0      -627.916443   1894.423340  -7625.000000     57.879139
    8822           0      -627.916443   1894.423340  -7875.000000     60.392235
    8823           0      -627.916443   1894.423340  -8125.000000     62.961666
    8824           0      -627.916443   1894.423340  -8375.000000     65.579987
    8825           0      -627.916443   1894.423340  -8625.000000     68.252686
    8826           0      -627.916443   1894.423340  -8875.000000     70.968307
    8827           0      -627.916443   1894.423340  -9125.000000     73.736023
    8828           0      -627.916443   1894.423340  -9375.000000     76.537888
    8829           0      -627.916443   1894.423340  -9625.000000     79.390358
    8830           0      -627.916443   1894.423340  -9875.000000     82.266777
    8831           0      -627.916443   1894.423340  -10124.99902     85.194199
    8832           0      -627.916443   1894.423340  -10374.99902     88.132385
    8833           0      -627.916443   1894.423340  -10625.00000     91.127602
    8834           0      -627.916443   1894.423340  -10875.00000     94.115791
    8835           0      -627.916443   1894.423340  -11125.00000     97.173691
    8836           0      -627.916443   1894.423340  -11375.00000    100.200798
    8837           0      -627.916443   1894.423340  -11625.00000    103.321045
    8838           0      -627.916443   1894.423340  -11875.00000    106.376358
    8839           0      -627.916443   1894.423340  -12125.00000    109.546318
    8840           0      -627.916443   1894.423340  -12374.99902    112.684258
    8841           0      -627.916443   1894.423340  -12625.00000    115.846413
    8842           0      -627.916443   1894.423340  -12874.99902    118.368279
    8843           0      -627.916443   1894.423340  -13124.99902    126.461784
    8844           0      -627.916443   1894.423340  -13374.99902    113.925682
    8845           0      -736.700378   1854.829224   -124.999985     32.704220
    8846           0      -736.700378   1854.829224   -375.000000     29.250168
    8847           0      -736.700378   1854.829224   -624.999939     28.555464
    8848           0      -736.700378   1854.829224   -875.000000     27.712679
    8849           0      -736.700378   1854.829224  -1125.000000     26.421822
    8850           0      -736.700378   1854.829224  -1375.000122     25.913881
    8851           0      -736.700378   1854.829224  -1625.000000     25.098400
    8852           0      -736.700378   1854.829224  -1874.999756     24.812136
    8853           0      -736.700378   1854.829224  -2125.000000     24.502867
    8854           0      -736.700378   1854.829224  -2375.000244     24.579271
    8855           0      -736.700378   1854.829224  -2624.999756     24.776320
    8856           0      -736.700378   1854.829224  -2874.999512     25.277632
    8857           0      -736.700378   1854.829224  -3124.999756     25.954914
    8858           0      -736.700378   1854.829224  -3375.000244     26.873497
    8859           0      -736.700378   1854.829224  -3625.000244     27.968386
    8860           0      -736.700378   1854.829224  -3875.000244     29.249525
    8861           0      -736.700378   1854.829224  -4125.000000     30.681444
    8862           0      -736.700378   1854.829224  -4375.000000     32.253094
    8863           0      -736.700378   1854.829224  -4625.000000     33.943245
    8864           0      -736.700378   1854.829224  -4875.000000     35.736130
    8865           0      -736.700378   1854.829224  -5124.999512     37.617737
    8866           0      -736.700378   1854.829224  -5374.999512     39.573990
    8867           0      -736.700378   1854.829224  -5625.000000     41.594982
    8868           0      -736.700378   1854.829224  -5875.000488     43.669994
    8869           0      -736.700378   1854.829224  -6125.000977     45.792442
    8870           0      -736.700378   1854.829224  -6375.000488     47.954899
    8871           0      -736.700378   1854.829224  -6625.000000     50.153465
    8872           0      -736.700378   1854.829224  -6875.000488     52.383915
    8873           0      -736.700378   1854.829224  -7124.999512     54.644753
    8874           0      -736.700378   1854.829224  -7374.999023     56.933086
    8875           0      -736.700378   1854.829224  -7625.000000     59.250240
    8876           0      -736.700378   1854.829224  -7875.000000     61.593178
    8877           0      -736.700378   1854.829224  -8124.999023     63.965385
    8878           0      -736.700378   1854.829224  -8374.999023     66.362297
    8879           0      -736.700378   1854.829224  -8625.000000     68.789612
    8880           0      -736.700378   1854.829224  -8875.000977     71.240067
    8881           0      -736.700378   1854.829224  -9125.000000     73.722130
    8882           0      -736.700378   1854.829224  -9374.999023     76.222672
    8883           0      -736.700378   1854.829224  -9625.000000     78.757393
    8884           0      -736.700378   1854.829224  -9875.000000     81.303185
    8885           0      -736.700378   1854.829224  -10125.00000     83.888222
    8886           0      -736.700378   1854.829224  -10375.00000     86.470337
    8887           0      -736.700378   1854.829224  -10624.99902     89.106407
    8888           0      -736.700378   1854.829224  -10875.00097     91.713058
    8889           0      -736.700378   1854.829224  -11125.00097     94.405190
    8890           0      -736.700378   1854.829224  -11375.00000     97.019073
    8891           0      -736.700378   1854.829224  -11625.00000     99.784874
    8892           0      -736.700378   1854.829224  -11875.00000    102.369797
    8893           0      -736.700378   1854.829224  -12125.00000    105.263123
    8894           0      -736.700378   1854.829224  -12374.99902    107.743645
    8895           0      -736.700378   1854.829224  -12625.00000    110.787643
    8896           0      -736.700378   1854.829224  -12874.99902    113.322952
    8897           0      -736.700378   1854.829224  -13124.99804    117.006439
    8898           0      -736.700378   1854.829224  -13374.99902    114.098267
    8899           0      -842.020264   1805.717773   -124.999985     33.690033
    8900           0      -842.020264   1805.717773   -374.999969     34.862717
    8901           0      -842.020264   1805.717773   -624.999939     32.972214
    8902           0      -842.020264   1805.717773   -874.999878     31.237001
    8903           0      -842.020264   1805.717773  -1124.999878     30.346827
    8904           0      -842.020264   1805.717773  -1375.000244     29.069643
    8905           0      -842.020264   1805.717773  -1625.000000     28.317287
    8906           0      -842.020264   1805.717773  -1874.999512     27.594717
    8907           0      -842.020264   1805.717773  -2125.000244     27.219271
    8908           0      -842.020264   1805.717773  -2375.000244     27.047518
    8909           0      -842.020264   1805.717773  -2624.999756     27.166620
    8910           0      -842.020203   1805.717773  -2874.999512     27.551888
    8911           0      -842.020203   1805.717773  -3124.999512     28.191307
    8912           0      -842.020203   1805.717773  -3375.000488     29.090178
    8913           0      -842.020203   1805.717773  -3625.000488     30.200249
    8914           0      -842.020203   1805.717773  -3875.000244     31.525633
    8915           0      -842.020203   1805.717773  -4125.000488     33.013443
    8916           0      -842.020203   1805.717773  -4375.000488     34.661400
    8917           0      -842.020203   1805.717773  -4625.000488     36.424370
    8918           0      -842.020203   1805.717773  -4874.999512     38.295750
    8919           0      -842.020203   1805.717773  -5124.999512     40.240730
    8920           0      -842.020203   1805.717773  -5374.999023     42.251461
    8921           0      -842.020203   1805.717773  -5625.000000     44.302277
    8922           0      -842.020203   1805.717773  -5875.000977     46.386467
    8923           0      -842.020203   1805.717773  -6125.000977     48.485806
    8924           0      -842.020203   1805.717773  -6375.000000     50.595722
    8925           0      -842.020203   1805.717773  -6625.000000     52.704117
    8926           0      -842.020203   1805.717773  -6875.000977     54.810020
    8927           0      -842.020203   1805.717773  -7124.999023     56.905689
    8928           0      -842.020203   1805.717773  -7374.998535     58.993080
    8929           0      -842.020203   1805.717773  -7625.000000     61.068245
    8930           0      -842.020203   1805.717773  -7875.000000     63.136059
    8931           0      -842.020203   1805.717773  -8124.999023     65.193840
    8932           0      -842.020203   1805.717773  -8374.999023     67.249634
    8933           0      -842.020203   1805.717773  -8625.000000     69.299591
    8934           0      -842.020203   1805.717773  -8875.000977     71.356010
    8935           0      -842.020203   1805.717773  -9125.000000     73.409721
    8936           0      -842.020203   1805.717773  -9374.998047     75.479034
    8937           0      -842.020203   1805.717773  -9625.000000     77.546005
    8938           0      -842.020203   1805.717773  -9875.000000     79.639702
    8939           0      -842.020203   1805.717773  -10125.00000     81.724899
    8940           0      -842.020203   1805.717773  -10375.00000     83.850830
    8941           0      -842.020203   1805.717773  -10624.99804     85.955658
    8942           0      -842.020142   1805.717773  -10875.00195     88.121056
    8943           0      -842.020142   1805.717773  -11125.00195     90.241730
    8944           0      -842.020142   1805.717773  -11375.00000     92.455894
    8945           0      -842.020142   1805.717773  -11625.00000     94.584137
    8946           0      -842.020142   1805.717773  -11875.00000     96.868767
    8947           0      -842.020142   1805.717773  -12125.00000     98.950592
    8948           0      -842.020142   1805.717773  -12375.00000    101.420715
    8949           0      -842.020142   1805.717773  -12625.00000    103.516739
    8950           0      -842.020142   1805.717773  -12874.99804    104.518456
    8951           0      -842.020142   1805.717773  -13124.99609    114.044373
    8952           0      -842.020264   1805.717773  -13374.99804    100.377525
    8953           0      -947.340088   1756.606201   -124.999992     36.304958
    8954           0      -947.340088   1756.606201   -375.000000     38.641113
    8955           0      -947.340088   1756.606201   -625.000000     35.705906
    8956           0      -947.340088   1756.606201   -874.999939     34.284321
    8957           0      -947.340088   1756.606201  -1125.000000     32.788700
    8958           0      -947.340088   1756.606201  -1375.000122     31.371269
    8959           0      -947.340088   1756.606201  -1625.000000     30.282299
    8960           0      -947.340088   1756.606201  -1874.999756     29.288151
    8961           0      -947.340088   1756.606201  -2125.000000     28.677055
    8962           0      -947.340088   1756.606201  -2375.000000     28.231981
    8963           0      -947.340088   1756.606201  -2625.000000     28.189589
    8964           0      -947.340088   1756.606201  -2874.999756     28.367887
    8965           0      -947.340088   1756.606201  -3125.000000     28.923775
    8966           0      -947.340088   1756.606201  -3375.000244     29.713060
    8967           0      -947.340088   1756.606201  -3625.000000     30.817940
    8968           0      -947.340088   1756.606201  -3875.000000     32.128174
    8969           0      -947.340088   1756.606201  -4125.000000     33.675133
    8970           0      -947.340088   1756.606201  -4375.000000     35.377884
    8971           0      -947.340088   1756.606201  -4625.000000     37.240234
    8972           0      -947.340088   1756.606445  -4875.000000     39.204735
    8973           0      -947.340088   1756.606445  -5125.000000     41.262871
    8974           0      -947.340088   1756.606445  -5375.000000     43.374786
    8975           0      -947.340088   1756.606445  -5625.000000     45.528191
    8976           0      -947.340088   1756.606445  -5875.000488     47.696301
    8977           0      -947.340088   1756.606445  -6125.000488     49.867802
    8978           0      -947.340088   1756.606445  -6375.000000     52.025253
    8979           0      -947.340088   1756.606445  -6625.000000     54.160698
    8980           0      -947.340088   1756.606445  -6875.000000     56.264133
    8981           0      -947.340088   1756.606445  -7124.999512     58.332241
    8982           0      -947.340088   1756.606445  -7374.999023     60.359585
    8983           0      -947.340088   1756.606445  -7625.000000     62.348305
    8984           0      -947.340088   1756.606445  -7875.000000     64.295662
    8985           0      -947.340088   1756.606445  -8125.000000     66.208672
    8986           0      -947.340088   1756.606445  -8375.000000     68.085152
    8987           0      -947.340088   1756.606445  -8625.000000     69.936317
    8988           0      -947.340088   1756.606445  -8875.000000     71.758644
    8989           0      -947.340088   1756.606445  -9125.000000     73.566673
    8990           0      -947.340088   1756.606445  -9375.000000     75.352585
    8991           0      -947.340088   1756.606445  -9625.000000     77.134995
    8992           0      -947.340088   1756.606445  -9875.000000     78.900200
    8993           0      -947.340088   1756.606445  -10124.99902     80.670921
    8994           0      -947.340088   1756.606445  -10374.99902     82.426025
    8995           0      -947.340027   1756.606445  -10625.00000     84.195389
    8996           0      -947.340027   1756.606445  -10875.00000     85.948402
    8997           0      -947.340027   1756.606445  -11125.00000     87.722710
    8998           0      -947.340027   1756.606445  -11375.00000     89.481117
    8999           0      -947.340027   1756.606445  -11625.00000     91.264091
    9000           0      -947.340027   1756.606445  -11875.00000     93.038651
    9001           0      -947.340027   1756.606445  -12125.00000     94.808174
    9002           0      -947.340027   1756.606445  -12374.99902     96.686981
    9003           0      -947.340027   1756.606445  -12625.00000     98.354744
    9004           0      -947.340027   1756.606445  -12874.99902     99.710327
    9005           0      -947.340027   1756.606445  -13124.99902    105.844330
    9006           0      -947.340088   1756.606445  -13374.99902     94.073318
    9007           0     -1047.595947   1698.723511   -124.999985     44.871269
    9008           0     -1047.595947   1698.723511   -375.000000     40.923508
    9009           0     -1047.595947   1698.723511   -624.999939     39.346325
    9010           0     -1047.595947   1698.723511   -875.000000     37.834286
    9011           0     -1047.595947   1698.723511  -1125.000000     35.679031
    9012           0     -1047.595947   1698.723511  -1375.000122     34.500164
    9013           0     -1047.595947   1698.723511  -1625.000000     32.905476
    9014           0     -1047.595947   1698.723511  -1874.999756     31.980209
    9015           0     -1047.595947   1698.723511  -2125.000000     31.003510
    9016           0     -1047.595947   1698.723511  -2375.000244     30.538132
    9017           0     -1047.595947   1698.723511  -2624.999756     30.228235
    9018           0     -1047.595947   1698.723511  -2874.999512     30.348896
    9019           0     -1047.595947   1698.723511  -3124.999756     30.721563
    9020           0     -1047.595947   1698.723511  -3375.000244     31.455465
    9021           0     -1047.595947   1698.723511  -3625.000244     32.451263
    9022           0     -1047.595947   1698.723511  -3875.000244     33.729084
    9023           0     -1047.595947   1698.723511  -4125.000000     35.224667
    9024           0     -1047.595947   1698.723511  -4375.000000     36.918610
    9025           0     -1047.595947   1698.723511  -4625.000000     38.764919
    9026           0     -1047.595947   1698.723511  -4875.000000     40.732677
    9027           0     -1047.595947   1698.723511  -5124.999512     42.787582
    9028           0     -1047.595947   1698.723511  -5374.999512     44.900055
    9029           0     -1047.595947   1698.723511  -5625.000000     47.044460
    9030           0     -1047.595947   1698.723511  -5875.000488     49.196918
    9031           0     -1047.595947   1698.723511  -6125.000977     51.339165
    9032           0     -1047.595947   1698.723511  -6375.000488     53.453983
    9033           0     -1047.595947   1698.723511  -6625.000000     55.529282
    9034           0     -1047.595947   1698.723511  -6875.000488     57.554844
    9035           0     -1047.595947   1698.723511  -7124.999512     59.523785
    9036           0     -1047.595947   1698.723511  -7374.999023     61.431511
    9037           0     -1047.595947   1698.723511  -7625.000000     63.276142
    9038           0     -1047.595947   1698.723511  -7875.000000     65.057663
    9039           0     -1047.595947   1698.723511  -8124.999023     66.777794
    9040           0     -1047.595947   1698.723511  -8374.999023     68.439987
    9041           0     -1047.595947   1698.723511  -8625.000000     70.048317
    9042           0     -1047.595947   1698.723511  -8875.000977     71.608810
    9043           0     -1047.595947   1698.723511  -9125.000000     73.126228
    9044           0     -1047.595947   1698.723511  -9374.999023     74.606773
    9045           0     -1047.595947   1698.723511  -9625.000000     76.056778
    9046           0     -1047.595947   1698.723511  -9875.000000     77.480476
    9047           0     -1047.595947   1698.723511  -10125.00000     78.886032
    9048           0     -1047.595947   1698.723511  -10375.00000     80.271523
    9049           0     -1047.595947   1698.723511  -10624.99902     81.654671
    9050           0     -1047.595947   1698.723511  -10875.00097     83.015579
    9051           0     -1047.595947   1698.723511  -11125.00097     84.396217
    9052           0     -1047.595947   1698.723511  -11375.00000     85.739014
    9053           0     -1047.595947   1698.723511  -11625.00000     87.140236
    9054           0     -1047.595947   1698.723511  -11875.00000     88.453751
    9055           0     -1047.595947   1698.723511  -12125.00000     89.922150
    9056           0     -1047.595947   1698.723511  -12374.99902     91.163857
    9057           0     -1047.595947   1698.723511  -12625.00000     92.681084
    9058           0     -1047.595947   1698.723511  -12874.99902     94.187157
    9059           0     -1047.595947   1698.723511  -13124.99804     95.444138
    9060           0     -1047.595947   1698.723511  -13374.99902     94.141426
    9061           0     -1142.787598   1632.069580   -124.999985     44.287254
    9062           0     -1142.787598   1632.069580   -374.999969     46.419682
    9063           0     -1142.787598   1632.069580   -624.999939     43.208744
    9064           0     -1142.787598   1632.069580   -874.999878     41.037640
    9065           0     -1142.787598   1632.069580  -1124.999878     39.572929
    9066           0     -1142.787598   1632.069580  -1375.000244     37.653584
    9067           0     -1142.787598   1632.069580  -1625.000000     36.339306
    9068           0     -1142.787598   1632.069580  -1874.999512     34.991348
    9069           0     -1142.787598   1632.069580  -2125.000244     34.055538
    9070           0     -1142.787598   1632.069580  -2375.000244     33.311142
    9071           0     -1142.787598   1632.069580  -2624.999756     32.925102
    9072           0     -1142.787598   1632.069580  -2874.999512     32.841255
    9073           0     -1142.787598   1632.069580  -3124.999512     33.092003
    9074           0     -1142.787598   1632.069580  -3375.000488     33.671272
    9075           0     -1142.787598   1632.069580  -3625.000488     34.545147
    9076           0     -1142.787598   1632.069580  -3875.000244     35.708706
    9077           0     -1142.787598   1632.069580  -4125.000488     37.101738
    9078           0     -1142.787598   1632.069580  -4375.000488     38.709980
    9079           0     -1142.787598   1632.069580  -4625.000488     40.471096
    9080           0     -1142.787598   1632.069580  -4874.999512     42.365452
    9081           0     -1142.787598   1632.069580  -5124.999512     44.339977
    9082           0     -1142.787598   1632.069580  -5374.999023     46.375149
    9083           0     -1142.787598   1632.069580  -5625.000000     48.430050
    9084           0     -1142.787598   1632.069580  -5875.000977     50.488537
    9085           0     -1142.787598   1632.069580  -6125.000977     52.521072
    9086           0     -1142.787598   1632.069580  -6375.000000     54.516037
    9087           0     -1142.787598   1632.069580  -6625.000000     56.453659
    9088           0     -1142.787598   1632.069580  -6875.000977     58.327553
    9089           0     -1142.787598   1632.069580  -7124.999023     60.125641
    9090           0     -1142.787598   1632.069580  -7374.998535     61.845875
    9091           0     -1142.787598   1632.069580  -7625.000000     63.482983
    9092           0     -1142.787598   1632.069580  -7875.000000     65.038712
    9093           0     -1142.787598   1632.069580  -8124.999023     66.512596
    9094           0     -1142.787598   1632.069580  -8374.999023     67.909775
    9095           0     -1142.787598   1632.069580  -8625.000000     69.233101
    9096           0     -1142.787598   1632.069580  -8875.000977     70.490944
    9097           0     -1142.787598   1632.069580  -9125.000000     71.687080
    9098           0     -1142.787598   1632.069580  -9374.998047     72.832771
    9099           0     -1142.787598   1632.069580  -9625.000000     73.931137
    9100           0     -1142.787598   1632.069580  -9875.000000     74.996971
    9101           0     -1142.787598   1632.069580  -10125.00000     76.028351
    9102           0     -1142.787598   1632.069580  -10375.00000     77.045479
    9103           0     -1142.787598   1632.069580  -10624.99804     78.038818
    9104           0     -1142.787598   1632.069580  -10875.00195     79.034508
    9105           0     -1142.787598   1632.069580  -11125.00195     80.012398
    9106           0     -1142.787720   1632.069580  -11375.00000     81.007729
    9107           0     -1142.787720   1632.069580  -11625.00000     81.987152
    9108           0     -1142.787720   1632.069580  -11875.00000     83.002052
    9109           0     -1142.787720   1632.069580  -12125.00000     83.968300
    9110           0     -1142.787720   1632.069580  -12375.00000     85.078613
    9111           0     -1142.787720   1632.069580  -12625.00000     86.103279
    9112           0     -1142.787720   1632.069580  -12874.99804     86.141777
    9113           0     -1142.787720   1632.069580  -13124.99609     92.350502
    9114           0     -1142.787720   1632.069580  -13374.99804     82.544250
    9115           0     -1237.979370   1565.415527   -124.999992     45.659695
    9116           0     -1237.979370   1565.415527   -375.000000     49.442841
    9117           0     -1237.979370   1565.415527   -625.000000     45.482002
    9118           0     -1237.979370   1565.415527   -874.999939     43.835060
    9119           0     -1237.979370   1565.415527  -1125.000000     42.042004
    9120           0     -1237.979370   1565.415527  -1375.000122     40.283363
    9121           0     -1237.979370   1565.415527  -1625.000000     38.888042
    9122           0     -1237.979370   1565.415527  -1874.999756     37.578011
    9123           0     -1237.979370   1565.415527  -2125.000000     36.664768
    9124           0     -1237.979370   1565.415527  -2375.000000     35.926048
    9125           0     -1237.979370   1565.415527  -2625.000000     35.612995
    9126           0     -1237.979370   1565.415527  -2874.999756     35.544331
    9127           0     -1237.979370   1565.415527  -3125.000000     35.894417
    9128           0     -1237.979370   1565.415527  -3375.000244     36.514736
    9129           0     -1237.979370   1565.415527  -3625.000000     37.501438
    9130           0     -1237.979370   1565.415527  -3875.000000     38.729916
    9131           0     -1237.979370   1565.415527  -4125.000000     40.236034
    9132           0     -1237.979370   1565.415527  -4375.000000     41.917126
    9133           0     -1237.979370   1565.415527  -4625.000000     43.773575
    9134           0     -1237.979370   1565.415527  -4875.000000     45.725140
    9135           0     -1237.979370   1565.415527  -5125.000000     47.756702
    9136           0     -1237.979370   1565.415527  -5375.000000     49.809143
    9137           0     -1237.979370   1565.415527  -5625.000000     51.863987
    9138           0     -1237.979370   1565.415527  -5875.000488     53.880493
    9139           0     -1237.979370   1565.415527  -6125.000488     55.843124
    9140           0     -1237.979370   1565.415527  -6375.000000     57.725723
    9141           0     -1237.979370   1565.415527  -6625.000000     59.518467
    9142           0     -1237.979370   1565.415527  -6875.000000     61.207130
    9143           0     -1237.979370   1565.415527  -7124.999512     62.788574
    9144           0     -1237.979370   1565.415527  -7374.999023     64.256790
    9145           0     -1237.979370   1565.415527  -7625.000000     65.615562
    9146           0     -1237.979370   1565.415527  -7875.000000     66.864670
    9147           0     -1237.979370   1565.415527  -8125.000000     68.013588
    9148           0     -1237.979370   1565.415527  -8375.000000     69.065483
    9149           0     -1237.979370   1565.415527  -8625.000000     70.034142
    9150           0     -1237.979370   1565.415527  -8875.000000     70.924347
    9151           0     -1237.979370   1565.415527  -9125.000000     71.752365
    9152           0     -1237.979370   1565.415527  -9375.000000     72.522232
    9153           0     -1237.979370   1565.415527  -9625.000000     73.251617
    9154           0     -1237.979370   1565.415527  -9875.000000     73.942841
    9155           0     -1237.979370   1565.415527  -10124.99902     74.612480
    9156           0     -1237.979370   1565.415527  -10374.99902     75.260925
    9157           0     -1237.979370   1565.415527  -10625.00000     75.902359
    9158           0     -1237.979370   1565.415527  -10875.00000     76.537025
    9159           0     -1237.979370   1565.415527  -11125.00000     77.171913
    9160           0     -1237.979492   1565.415527  -11375.00000     77.816116
    9161           0     -1237.979492   1565.415527  -11625.00000     78.457672
    9162           0     -1237.979492   1565.415527  -11875.00000     79.135361
    9163           0     -1237.979492   1565.415527  -12125.00000     79.766891
    9164           0     -1237.979492   1565.415527  -12374.99902     80.571533
    9165           0     -1237.979492   1565.415527  -12625.00000     81.106842
    9166           0     -1237.979492   1565.415527  -12874.99902     81.527016
    9167           0     -1237.979492   1565.415527  -13124.99902     85.702599
    9168           0     -1237.979370   1565.415527  -13374.99902     75.942421
    9169           0     -1326.660889   1491.003052   -124.999985     52.502617
    9170           0     -1326.660889   1491.003052   -375.000000     48.873035
    9171           0     -1326.660889   1491.003052   -624.999939     47.152691
    9172           0     -1326.660889   1491.003052   -875.000000     45.895206
    9173           0     -1326.660889   1491.003052  -1125.000000     43.750381
    9174           0     -1326.660889   1491.003052  -1375.000122     42.709404
    9175           0     -1326.660889   1491.003052  -1625.000000     41.185036
    9176           0     -1326.660889   1491.003052  -1874.999756     40.375248
    9177           0     -1326.660889   1491.003052  -2125.000000     39.475861
    9178           0     -1326.660889   1491.003052  -2375.000244     39.107883
    9179           0     -1326.660889   1491.003052  -2624.999756     38.867027
    9180           0     -1326.660889   1491.003052  -2874.999512     39.067089
    9181           0     -1326.660889   1491.003052  -3124.999756     39.496071
    9182           0     -1326.660889   1491.003052  -3375.000244     40.292271
    9183           0     -1326.660889   1491.003052  -3625.000244     41.329025
    9184           0     -1326.660889   1491.003052  -3875.000244     42.645386
    9185           0     -1326.660889   1491.003052  -4125.000000     44.152599
    9186           0     -1326.660889   1491.003052  -4375.000000     45.839817
    9187           0     -1326.660889   1491.003052  -4625.000000     47.639465
    9188           0     -1326.660889   1491.003052  -4875.000000     49.522060
    9189           0     -1326.660889   1491.003052  -5124.999512     51.435963
    9190           0     -1326.660889   1491.003052  -5374.999512     53.350216
    9191           0     -1326.660889   1491.003052  -5625.000000     55.227104
    9192           0     -1326.660889   1491.003052  -5875.000488     57.041981
    9193           0     -1326.660889   1491.003052  -6125.000977     58.769730
    9194           0     -1326.660889   1491.003052  -6375.000488     60.394844
    9195           0     -1326.660889   1491.003052  -6625.000000     61.902985
    9196           0     -1326.660889   1491.003052  -6875.000488     63.288940
    9197           0     -1326.660889   1491.003052  -7124.999512     64.547325
    9198           0     -1326.660889   1491.003052  -7374.999023     65.681343
    9199           0     -1326.660889   1491.003052  -7625.000000     66.693222
    9200           0     -1326.660889   1491.003052  -7875.000000     67.593353
    9201           0     -1326.660889   1491.003052  -8124.999023     68.388229
    9202           0     -1326.660889   1491.003052  -8374.999023     69.093796
    9203           0     -1326.660889   1491.003052  -8625.000000     69.717392
    9204           0     -1326.660889   1491.003052  -8875.000977     70.279747
    9205           0     -1326.660889   1491.003052  -9125.000000     70.784874
    9206           0     -1326.660889   1491.003052  -9374.999023     71.256020
    9207           0     -1326.660889   1491.003052  -9625.000000     71.692009
    9208           0     -1326.660889   1491.003052  -9875.000000     72.118828
    9209           0     -1326.660889   1491.003052  -10125.00000     72.526115
    9210           0     -1326.660889   1491.003052  -10375.00000     72.943596
    9211           0     -1326.660889   1491.003052  -10624.99902     73.352562
    9212           0     -1326.660889   1491.003052  -10875.00097     73.786110
    9213           0     -1326.660889   1491.003052  -11125.00097     74.217247
    9214           0     -1326.660889   1491.003052  -11375.00000     74.685905
    9215           0     -1326.660889   1491.003052  -11625.00000     75.154564
    9216           0     -1326.660889   1491.003052  -11875.00000     75.666664
    9217           0     -1326.660889   1491.003052  -12125.00000     76.195107
    9218           0     -1326.660889   1491.003052  -12374.99902     76.745682
    9219           0     -1326.660889   1491.003052  -12625.00000     77.237083
    9220           0     -1326.661011   1491.003052  -12874.99902     78.318985
    9221           0     -1326.661011   1491.002930  -13124.99804     77.927773
    9222           0     -1326.661011   1491.002930  -13374.99902     78.131889
    9223           0     -1408.832275   1408.831787   -124.999985     48.394238
    9224           0     -1408.832275   1408.831787   -374.999969     50.315746
    9225           0     -1408.832275   1408.831787   -624.999939     47.592831
    9226           0     -1408.832275   1408.831787   -874.999878     46.333675
    9227           0     -1408.832275   1408.831787  -1124.999878     45.249222
    9228           0     -1408.832275   1408.831787  -1375.000244     44.007423
    9229           0     -1408.832275   1408.831787  -1625.000000     43.190247
    9230           0     -1408.832275   1408.831787  -1874.999512     42.395695
    9231           0     -1408.832275   1408.831787  -2125.000244     41.940071
    9232           0     -1408.832275   1408.831787  -2375.000244     41.659924
    9233           0     -1408.832275   1408.831787  -2624.999756     41.690353
    9234           0     -1408.832275   1408.831787  -2874.999512     41.973312
    9235           0     -1408.832275   1408.831787  -3124.999512     42.545528
    9236           0     -1408.832275   1408.831787  -3375.000488     43.378689
    9237           0     -1408.832275   1408.831787  -3625.000488     44.452728
    9238           0     -1408.832275   1408.831787  -3875.000244     45.738804
    9239           0     -1408.832275   1408.831787  -4125.000488     47.188812
    9240           0     -1408.832275   1408.831787  -4375.000488     48.769466
    9241           0     -1408.832275   1408.831787  -4625.000488     50.426105
    9242           0     -1408.832275   1408.831787  -4874.999512     52.126080
    9243           0     -1408.832275   1408.831787  -5124.999512     53.821075
    9244           0     -1408.832275   1408.831787  -5374.999023     55.484512
    9245           0     -1408.832275   1408.831787  -5625.000000     57.079590
    9246           0     -1408.832275   1408.831787  -5875.000977     58.588463
    9247           0     -1408.832031   1408.831787  -6125.000977     59.987255
    9248           0     -1408.832031   1408.831787  -6375.000000     61.267181
    9249           0     -1408.832031   1408.831787  -6625.000000     62.416843
    9250           0     -1408.832031   1408.831787  -6875.000977     63.435951
    9251           0     -1408.832031   1408.831787  -7124.999023     64.323936
    9252           0     -1408.832031   1408.831787  -7374.998535     65.087479
    9253           0     -1408.832031   1408.831787  -7625.000000     65.735413
    9254           0     -1408.832031   1408.831787  -7875.000000     66.279205
    9255           0     -1408.832031   1408.831787  -8124.999023     66.734955
    9256           0     -1408.832031   1408.831787  -8374.999023     67.115952
    9257           0     -1408.832031   1408.831787  -8625.000000     67.443375
    9258           0     -1408.832031   1408.831787  -8875.000977     67.729019
    9259           0     -1408.832031   1408.831787  -9125.000000     67.995995
    9260           0     -1408.832031   1408.831787  -9374.998047     68.251328
    9261           0     -1408.832031   1408.831787  -9625.000000     68.518127
    9262           0     -1408.832031   1408.831787  -9875.000000     68.795921
    9263           0     -1408.832031   1408.831787  -10125.00000     69.106346
    9264           0     -1408.832031   1408.831787  -10375.00000     69.440636
    9265           0     -1408.832031   1408.831787  -10624.99804     69.821098
    9266           0     -1408.832031   1408.831787  -10875.00195     70.228943
    9267           0     -1408.832031   1408.831787  -11125.00195     70.691231
    9268           0     -1408.832031   1408.831787  -11375.00000     71.177254
    9269           0     -1408.832031   1408.831787  -11625.00000     71.725197
    9270           0     -1408.832031   1408.831787  -11875.00000     72.288765
    9271           0     -1408.832031   1408.831787  -12125.00000     72.895813
    9272           0     -1408.832031   1408.831787  -12375.00000     73.588905
    9273           0     -1408.832031   1408.831787  -12625.00000     74.250679
    9274           0     -1408.832031   1408.831787  -12874.99804     74.299530
    9275           0     -1408.832153   1408.831787  -13124.99609     78.582886
    9276           0     -1408.832153   1408.831787  -13374.99804     71.708878
    9277           0     -1491.003296   1326.660645   -124.999992     45.439079
    9278           0     -1491.003296   1326.660645   -375.000000     49.999542
    9279           0     -1491.003296   1326.660645   -625.000000     47.411068
    9280           0     -1491.003296   1326.660645   -874.999939     46.650261
    9281           0     -1491.003296   1326.660645  -1125.000000     46.220638
    9282           0     -1491.003296   1326.660645  -1375.000122     45.489170
    9283           0     -1491.003296   1326.660645  -1625.000000     45.282825
    9284           0     -1491.003296   1326.660645  -1874.999756     45.038227
    9285           0     -1491.003296   1326.660645  -2125.000000     45.203968
    9286           0     -1491.003296   1326.660645  -2375.000000     45.480278
    9287           0     -1491.003296   1326.660645  -2625.000000     46.126133
    9288           0     -1491.003296   1326.660645  -2874.999756     46.951626
    9289           0     -1491.003296   1326.660645  -3125.000000     48.098129
    9290           0     -1491.003296   1326.660645  -3375.000244     49.425228
    9291           0     -1491.003296   1326.660645  -3625.000000     50.993656
    9292           0     -1491.003296   1326.660645  -3875.000000     52.687813
    9293           0     -1491.003296   1326.660645  -4125.000000     54.519035
    9294           0     -1491.003296   1326.660645  -4375.000000     56.391792
    9295           0     -1491.003296   1326.660645  -4625.000000     58.294022
    9296           0     -1491.003296   1326.660645  -4875.000000     60.151333
    9297           0     -1491.003296   1326.660645  -5125.000000     61.945808
    9298           0     -1491.003296   1326.660645  -5375.000000     63.623943
    9299           0     -1491.003296   1326.660645  -5625.000000     65.171448
    9300           0     -1491.003296   1326.660645  -5875.000488     66.553886
    9301           0     -1491.003296   1326.660645  -6125.000488     67.764275
    9302           0     -1491.003296   1326.660645  -6375.000000     68.784355
    9303           0     -1491.003296   1326.660645  -6625.000000     69.615585
    9304           0     -1491.003296   1326.660645  -6875.000000     70.253395
    9305           0     -1491.003296   1326.660645  -7124.999512     70.707558
    9306           0     -1491.003296   1326.660645  -7374.999023     70.985008
    9307           0     -1491.003296   1326.660645  -7625.000000     71.103142
    9308           0     -1491.003296   1326.660645  -7875.000000     71.078682
    9309           0     -1491.003296   1326.660645  -8125.000000     70.935524
    9310           0     -1491.003296   1326.660645  -8375.000000     70.698082
    9311           0     -1491.003296   1326.660645  -8625.000000     70.394440
    9312           0     -1491.003296   1326.660645  -8875.000000     70.053764
    9313           0     -1491.003296   1326.660645  -9125.000000     69.704422
    9314           0     -1491.003296   1326.660645  -9375.000000     69.375954
    9315           0     -1491.003296   1326.660645  -9625.000000     69.091385
    9316           0     -1491.003296   1326.660645  -9875.000000     68.876724
    9317           0     -1491.003296   1326.660645  -10124.99902     68.743202
    9318           0     -1491.003296   1326.660645  -10374.99902     68.710541
    9319           0     -1491.003296   1326.660645  -10625.00000     68.774864
    9320           0     -1491.003296   1326.660645  -10875.00000     68.950317
    9321           0     -1491.003296   1326.660645  -11125.00000     69.218178
    9322           0     -1491.003296   1326.660645  -11375.00000     69.590637
    9323           0     -1491.003296   1326.660645  -11625.00000     70.040855
    9324           0     -1491.003296   1326.660645  -11875.00000     70.580406
    9325           0     -1491.003296   1326.660645  -12125.00000     71.169846
    9326           0     -1491.003296   1326.660645  -12374.99902     71.892586
    9327           0     -1491.003296   1326.660645  -12625.00000     72.559616
    9328           0     -1491.003296   1326.660645  -12874.99902     72.976700
    9329           0     -1491.003296   1326.660645  -13124.99902     76.637169
    9330           0     -1491.003296   1326.660645  -13374.99902     69.100098
    9331           0     -1565.416016   1237.979126   -124.999985     47.616035
    9332           0     -1565.416016   1237.979126   -375.000000     46.716576
    9333           0     -1565.416016   1237.979126   -624.999939     46.227036
    9334           0     -1565.416016   1237.979126   -875.000000     46.584511
    9335           0     -1565.416016   1237.979126  -1125.000000     46.299988
    9336           0     -1565.416016   1237.979126  -1375.000122     46.707020
    9337           0     -1565.416016   1237.979126  -1625.000000     46.839260
    9338           0     -1565.416016   1237.979126  -1874.999756     47.454731
    9339           0     -1565.416016   1237.979126  -2125.000000     48.022758
    9340           0     -1565.416016   1237.979126  -2375.000244     48.961205
    9341           0     -1565.416016   1237.979126  -2624.999756     49.972652
    9342           0     -1565.416016   1237.979126  -2874.999512     51.271061
    9343           0     -1565.416016   1237.979126  -3124.999756     52.671745
    9344           0     -1565.416016   1237.979126  -3375.000244     54.272465
    9345           0     -1565.416016   1237.979126  -3625.000244     55.943550
    9346           0     -1565.416016   1237.979126  -3875.000244     57.717922
    9347           0     -1565.416016   1237.979126  -4125.000000     59.498779
    9348           0     -1565.416016   1237.979126  -4375.000000     61.286842
    9349           0     -1565.416016   1237.979126  -4625.000000     63.010254
    9350           0     -1565.416016   1237.979126  -4875.000000     64.658348
    9351           0     -1565.416016   1237.979126  -5124.999512     66.180145
    9352           0     -1565.416016   1237.979126  -5374.999512     67.565048
    9353           0     -1565.416016   1237.979126  -5625.000000     68.779999
    9354           0     -1565.416016   1237.979126  -5875.000488     69.819633
    9355           0     -1565.416016   1237.979126  -6125.000977     70.665398
    9356           0     -1565.416016   1237.979126  -6375.000488     71.319115
    9357           0     -1565.416016   1237.979126  -6625.000000     71.773750
    9358           0     -1565.416016   1237.979126  -6875.000488     72.039566
    9359           0     -1565.416016   1237.979126  -7124.999512     72.119545
    9360           0     -1565.416016   1237.979126  -7374.999023     72.030617
    9361           0     -1565.416016   1237.979126  -7625.000000     71.785919
    9362           0     -1565.416016   1237.979126  -7875.000000     71.409889
    9363           0     -1565.416016   1237.979126  -8124.999023     70.923813
    9364           0     -1565.416016   1237.979126  -8374.999023     70.359818
    9365           0     -1565.416016   1237.979126  -8625.000000     69.744987
    9366           0     -1565.416016   1237.979126  -8875.000977     69.119522
    9367           0     -1565.416016   1237.979126  -9125.000000     68.511475
    9368           0     -1565.416016   1237.979126  -9374.999023     67.963791
    9369           0     -1565.416016   1237.979126  -9625.000000     67.500549
    9370           0     -1565.416016   1237.979126  -9875.000000     67.162216
    9371           0     -1565.416016   1237.979126  -10125.00000     66.958031
    9372           0     -1565.416016   1237.979126  -10375.00000     66.919678
    9373           0     -1565.416016   1237.979126  -10624.99902     67.036804
    9374           0     -1565.416016   1237.979126  -10875.00097     67.329414
    9375           0     -1565.416016   1237.979126  -11125.00097     67.764206
    9376           0     -1565.416016   1237.979126  -11375.00000     68.363670
    9377           0     -1565.416016   1237.979126  -11625.00000     69.064453
    9378           0     -1565.416016   1237.979126  -11875.00000     69.919113
    9379           0     -1565.416016   1237.979126  -12125.00000     70.830879
    9380           0     -1565.416016   1237.979126  -12374.99902     71.902779
    9381           0     -1565.416016   1237.979126  -12625.00000     72.828339
    9382           0     -1565.416016   1237.979126  -12874.99902     74.719765
    9383           0     -1565.416016   1237.979126  -13124.99804     74.401558
    9384           0     -1565.416016   1237.979126  -13374.99902     76.501015
    9385           0     -1632.069946   1142.787354   -124.999985     44.681313
    9386           0     -1632.069946   1142.787354   -374.999969     45.395348
    9387           0     -1632.069946   1142.787354   -624.999939     44.986092
    9388           0     -1632.069946   1142.787354   -874.999878     46.157589
    9389           0     -1632.069946   1142.787354  -1124.999878     46.425247
    9390           0     -1632.069946   1142.787354  -1375.000244     47.178425
    9391           0     -1632.069946   1142.787354  -1625.000000     47.854980
    9392           0     -1632.069946   1142.787354  -1874.999512     48.698360
    9393           0     -1632.069946   1142.787354  -2125.000244     49.644241
    9394           0     -1632.069946   1142.787354  -2375.000244     50.719303
    9395           0     -1632.069946   1142.787354  -2624.999756     51.928482
    9396           0     -1632.069946   1142.787354  -2874.999512     53.232418
    9397           0     -1632.069946   1142.787354  -3124.999512     54.637272
    9398           0     -1632.069946   1142.787354  -3375.000488     56.081944
    9399           0     -1632.069946   1142.787354  -3625.000488     57.561665
    9400           0     -1632.069946   1142.787354  -3875.000244     59.017056
    9401           0     -1632.069946   1142.787354  -4125.000488     60.436989
    9402           0     -1632.069946   1142.787354  -4375.000488     61.774273
    9403           0     -1632.069946   1142.787354  -4625.000488     63.017757
    9404           0     -1632.069946   1142.787354  -4874.999512     64.134766
    9405           0     -1632.069946   1142.787354  -5124.999512     65.118027
    9406           0     -1632.069946   1142.787354  -5374.999023     65.948555
    9407           0     -1632.069946   1142.787354  -5625.000000     66.623466
    9408           0     -1632.069946   1142.787354  -5875.000977     67.135155
    9409           0     -1632.069946   1142.787354  -6125.000977     67.486145
    9410           0     -1632.069946   1142.787354  -6375.000000     67.677170
    9411           0     -1632.069946   1142.787354  -6625.000000     67.716530
    9412           0     -1632.069946   1142.787354  -6875.000977     67.611557
    9413           0     -1632.069946   1142.787354  -7124.999023     67.376602
    9414           0     -1632.069946   1142.787354  -7374.998535     67.024971
    9415           0     -1632.069946   1142.787354  -7625.000000     66.577759
    9416           0     -1632.069946   1142.787354  -7875.000000     66.053787
    9417           0     -1632.069946   1142.787354  -8124.999023     65.482239
    9418           0     -1632.069946   1142.787354  -8374.999023     64.886215
    9419           0     -1632.069946   1142.787354  -8625.000000     64.304321
    9420           0     -1632.069946   1142.787354  -8875.000977     63.761696
    9421           0     -1632.069946   1142.787354  -9125.000000     63.304150
    9422           0     -1632.069946   1142.787354  -9374.998047     62.955795
    9423           0     -1632.069946   1142.787354  -9625.000000     62.764084
    9424           0     -1632.069946   1142.787354  -9875.000000     62.744106
    9425           0     -1632.069946   1142.787354  -10125.00000     62.935402
    9426           0     -1632.069946   1142.787354  -10375.00000     63.337612
    9427           0     -1632.069946   1142.787354  -10624.99804     63.970905
    9428           0     -1632.069946   1142.787354  -10875.00195     64.819862
    9429           0     -1632.069946   1142.787354  -11125.00195     65.875397
    9430           0     -1632.069946   1142.787354  -11375.00000     67.126869
    9431           0     -1632.069946   1142.787354  -11625.00000     68.522980
    9432           0     -1632.069946   1142.787354  -11875.00000     70.106911
    9433           0     -1632.069946   1142.787354  -12125.00000     71.708130
    9434           0     -1632.069946   1142.787354  -12375.00000     73.660110
    9435           0     -1632.069946   1142.787354  -12625.00000     75.292267
    9436           0     -1632.069946   1142.787354  -12874.99804     76.895927
    9437           0     -1632.069946   1142.787354  -13124.99609     82.300308
    9438           0     -1632.069946   1142.787354  -13374.99804     75.896759
    9439           0     -1698.723877   1047.595581   -124.999992     44.440201
    9440           0     -1698.723877   1047.595581   -375.000000     45.971779
    9441           0     -1698.723877   1047.595581   -625.000000     46.783852
    9442           0     -1698.723877   1047.595581   -874.999939     47.185822
    9443           0     -1698.723877   1047.595581  -1125.000000     48.329323
    9444           0     -1698.723877   1047.595581  -1375.000122     49.076790
    9445           0     -1698.723877   1047.595581  -1625.000000     50.236145
    9446           0     -1698.723877   1047.595581  -1874.999756     51.319118
    9447           0     -1698.723877   1047.595581  -2125.000000     52.659054
    9448           0     -1698.723877   1047.595581  -2375.000000     54.031818
    9449           0     -1698.723877   1047.595581  -2625.000000     55.566109
    9450           0     -1698.723877   1047.595581  -2874.999756     57.141064
    9451           0     -1698.723877   1047.595581  -3125.000000     58.786118
    9452           0     -1698.723877   1047.595581  -3375.000244     60.423401
    9453           0     -1698.723877   1047.595581  -3625.000000     62.041622
    9454           0     -1698.723877   1047.595581  -3875.000000     63.587727
    9455           0     -1698.723877   1047.595581  -4125.000000     65.041313
    9456           0     -1698.723877   1047.595581  -4375.000000     66.368561
    9457           0     -1698.723877   1047.595581  -4625.000000     67.553757
    9458           0     -1698.723877   1047.595581  -4875.000000     68.577873
    9459           0     -1698.723877   1047.595581  -5125.000000     69.433693
    9460           0     -1698.723877   1047.595581  -5375.000000     70.112274
    9461           0     -1698.723877   1047.595581  -5625.000000     70.614662
    9462           0     -1698.723877   1047.595581  -5875.000488     70.938644
    9463           0     -1698.723877   1047.595581  -6125.000488     71.091637
    9464           0     -1698.723877   1047.595581  -6375.000000     71.076904
    9465           0     -1698.723877   1047.595581  -6625.000000     70.907013
    9466           0     -1698.723877   1047.595581  -6875.000000     70.589706
    9467           0     -1698.723877   1047.595581  -7124.999512     70.141937
    9468           0     -1698.723877   1047.595581  -7374.999023     69.577744
    9469           0     -1698.723877   1047.595581  -7625.000000     68.917656
    9470           0     -1698.723877   1047.595581  -7875.000000     68.182899
    9471           0     -1698.723877   1047.595581  -8125.000000     67.398682
    9472           0     -1698.723877   1047.595581  -8375.000000     66.595131
    9473           0     -1698.723877   1047.595581  -8625.000000     65.801903
    9474           0     -1698.723877   1047.595581  -8875.000000     65.059013
    9475           0     -1698.723877   1047.595581  -9125.000000     64.400200
    9476           0     -1698.723877   1047.595581  -9375.000000     63.875320
    9477           0     -1698.723877   1047.595581  -9625.000000     63.515347
    9478           0     -1698.723877   1047.595581  -9875.000000     63.376625
    9479           0     -1698.723877   1047.595581  -10124.99902     63.477051
    9480           0     -1698.723877   1047.595581  -10374.99902     63.869858
    9481           0     -1698.723877   1047.595581  -10625.00000     64.546478
    9482           0     -1698.723877   1047.595581  -10875.00000     65.543777
    9483           0     -1698.723877   1047.595581  -11125.00000     66.826958
    9484           0     -1698.723877   1047.595581  -11375.00000     68.396965
    9485           0     -1698.723877   1047.595581  -11625.00000     70.229675
    9486           0     -1698.723877   1047.595581  -11875.00000     72.247932
    9487           0     -1698.723877   1047.595581  -12125.00000     74.521011
    9488           0     -1698.723877   1047.595581  -12374.99902     76.845016
    9489           0     -1698.723877   1047.595581  -12625.00000     79.513908
    9490           0     -1698.723877   1047.595581  -12874.99902     81.400040
    9491           0     -1698.723877   1047.595581  -13124.99902     87.449028
    9492           0     -1698.723877   1047.595581  -13374.99902     80.530205
    9493           0     -1756.606689    947.339722   -124.999985     45.788021
    9494           0     -1756.606689    947.339722   -375.000000     52.945309
    9495           0     -1756.606689    947.339722   -624.999939     50.524834
    9496           0     -1756.606689    947.339722   -875.000000     50.645489
    9497           0     -1756.606689    947.339722  -1125.000000     51.336311
    9498           0     -1756.606689    947.339722  -1375.000122     51.612568
    9499           0     -1756.606689    947.339722  -1625.000000     52.348915
    9500           0     -1756.606689    947.339722  -1874.999756     53.137920
    9501           0     -1756.606689    947.339722  -2125.000000     54.102776
    9502           0     -1756.606689    947.339722  -2375.000244     55.178875
    9503           0     -1756.606689    947.339722  -2624.999756     56.329079
    9504           0     -1756.606689    947.339722  -2874.999512     57.551327
    9505           0     -1756.606689    947.339722  -3124.999756     58.780148
    9506           0     -1756.606689    947.339722  -3375.000244     60.021957
    9507           0     -1756.606689    947.339722  -3625.000244     61.215984
    9508           0     -1756.606689    947.339722  -3875.000244     62.365040
    9509           0     -1756.606689    947.339722  -4125.000000     63.422501
    9510           0     -1756.606689    947.339722  -4375.000000     64.388672
    9511           0     -1756.606689    947.339722  -4625.000000     65.230957
    9512           0     -1756.606689    947.339722  -4875.000000     65.949692
    9513           0     -1756.606689    947.339722  -5124.999512     66.523544
    9514           0     -1756.606689    947.339722  -5374.999512     66.954384
    9515           0     -1756.606689    947.339722  -5625.000000     67.230103
    9516           0     -1756.606689    947.339722  -5875.000488     67.355225
    9517           0     -1756.606689    947.339722  -6125.000977     67.324753
    9518           0     -1756.606689    947.339722  -6375.000488     67.147675
    9519           0     -1756.606689    947.339722  -6625.000000     66.825676
    9520           0     -1756.606689    947.339722  -6875.000488     66.373970
    9521           0     -1756.606689    947.339722  -7124.999512     65.801414
    9522           0     -1756.606689    947.339722  -7374.999023     65.130302
    9523           0     -1756.606689    947.339722  -7625.000000     64.377754
    9524           0     -1756.606689    947.339722  -7875.000000     63.575001
    9525           0     -1756.606689    947.339722  -8124.999023     62.748081
    9526           0     -1756.606689    947.339722  -8374.999023     61.937435
    9527           0     -1756.606689    947.339722  -8625.000000     61.178547
    9528           0     -1756.606689    947.339722  -8875.000977     60.520523
    9529           0     -1756.606689    947.339722  -9125.000000     60.008541
    9530           0     -1756.606689    947.339722  -9374.999023     59.691422
    9531           0     -1756.606689    947.339722  -9625.000000     59.623970
    9532           0     -1756.606689    947.339722  -9875.000000     59.842312
    9533           0     -1756.606689    947.339722  -10125.00000     60.406185
    9534           0     -1756.606689    947.339722  -10375.00000     61.315357
    9535           0     -1756.606689    947.339722  -10624.99902     62.637348
    9536           0     -1756.606689    947.339722  -10875.00097     64.306107
    9537           0     -1756.606689    947.339722  -11125.00097     66.407280
    9538           0     -1756.606689    947.339722  -11375.00000     68.789879
    9539           0     -1756.606689    947.339722  -11625.00000     71.576080
    9540           0     -1756.606689    947.339722  -11875.00000     74.525742
    9541           0     -1756.606689    947.339722  -12125.00000     77.838036
    9542           0     -1756.606689    947.339722  -12374.99902     81.178108
    9543           0     -1756.606689    947.339722  -12625.00000     84.709625
    9544           0     -1756.606689    947.339722  -12874.99902     89.051689
    9545           0     -1756.606689    947.339722  -13124.99804     91.388634
    9546           0     -1756.606689    947.339722  -13374.99902     96.011703
    9547           0     -1805.718140    842.019836   -124.999985     57.658005
    9548           0     -1805.718140    842.019836   -374.999969     62.561184
    9549           0     -1805.718140    842.019836   -624.999939     57.027142
    9550           0     -1805.718140    842.019836   -874.999878     56.598385
    9551           0     -1805.718140    842.019836  -1124.999878     55.024925
    9552           0     -1805.718140    842.019836  -1375.000244     54.100124
    9553           0     -1805.718140    842.019836  -1625.000000     53.347416
    9554           0     -1805.718140    842.019836  -1874.999512     52.923309
    9555           0     -1805.718140    842.019836  -2125.000244     52.733322
    9556           0     -1805.718140    842.019836  -2375.000244     52.766979
    9557           0     -1805.718140    842.019836  -2624.999756     53.015530
    9558           0     -1805.718140    842.019836  -2874.999512     53.417667
    9559           0     -1805.718140    842.019836  -3124.999512     53.991116
    9560           0     -1805.718140    842.019836  -3375.000488     54.665329
    9561           0     -1805.718140    842.019836  -3625.000488     55.454323
    9562           0     -1805.718140    842.019836  -3875.000244     56.290665
    9563           0     -1805.718140    842.019836  -4125.000488     57.175976
    9564           0     -1805.718140    842.019836  -4375.000488     58.049377
    9565           0     -1805.718140    842.019836  -4625.000488     58.902271
    9566           0     -1805.718140    842.019836  -4874.999512     59.682697
    9567           0     -1805.718140    842.019836  -5124.999512     60.377850
    9568           0     -1805.718140    842.019836  -5374.999023     60.946472
    9569           0     -1805.718140    842.019836  -5625.000000     61.377430
    9570           0     -1805.718140    842.019836  -5875.000977     61.641064
    9571           0     -1805.718140    842.019836  -6125.000977     61.732605
    9572           0     -1805.718140    842.019836  -6375.000000     61.635109
    9573           0     -1805.718140    842.019836  -6625.000000     61.353893
    9574           0     -1805.718140    842.019836  -6875.000977     60.884968
    9575           0     -1805.718140    842.019836  -7124.999023     60.247356
    9576           0     -1805.718140    842.019836  -7374.998535     59.451714
    9577           0     -1805.718140    842.019836  -7625.000000     58.534199
    9578           0     -1805.718140    842.019836  -7875.000000     57.521767
    9579           0     -1805.718140    842.019836  -8124.999023     56.471985
    9580           0     -1805.718140    842.019836  -8374.999023     55.429016
    9581           0     -1805.718140    842.019775  -8625.000000     54.474812
    9582           0     -1805.718140    842.019775  -8875.000977     53.668064
    9583           0     -1805.718140    842.019775  -9125.000000     53.110493
    9584           0     -1805.718140    842.019775  -9374.998047     52.865395
    9585           0     -1805.718140    842.019775  -9625.000000     53.034775
    9586           0     -1805.718140    842.019775  -9875.000000     53.667057
    9587           0     -1805.718140    842.019775  -10125.00000     54.827850
    9588           0     -1805.718140    842.019775  -10375.00000     56.540287
    9589           0     -1805.718140    842.019775  -10624.99804     58.791363
    9590           0     -1805.718140    842.019775  -10875.00195     61.606331
    9591           0     -1805.718140    842.019775  -11125.00195     64.850380
    9592           0     -1805.718140    842.019775  -11375.00000     68.635735
    9593           0     -1805.718140    842.019775  -11625.00000     72.633095
    9594           0     -1805.718140    842.019775  -11875.00000     77.203094
    9595           0     -1805.718140    842.019775  -12125.00000     81.617043
    9596           0     -1805.718140    842.019775  -12375.00000     86.954849
    9597           0     -1805.718140    842.019775  -12625.00000     91.428909
    9598           0     -1805.718140    842.019775  -12874.99804     96.431839
    9599           0     -1805.718140    842.019775  -13124.99609    106.960793
    9600           0     -1805.718140    842.019836  -13374.99804     98.719940
    9601           0     -1854.829468    736.699951   -124.999992     74.958679
    9602           0     -1854.829468    736.699951   -375.000000     72.486526
    9603           0     -1854.829468    736.699951   -625.000000     67.832596
    9604           0     -1854.829468    736.699951   -874.999939     64.730164
    9605           0     -1854.829468    736.699951  -1125.000000     60.796295
    9606           0     -1854.829468    736.699951  -1375.000122     58.193039
    9607           0     -1854.829468    736.699951  -1625.000000     55.377499
    9608           0     -1854.829468    736.699951  -1874.999756     53.359879
    9609           0     -1854.829468    736.699951  -2125.000000     51.532734
    9610           0     -1854.829468    736.699951  -2375.000000     50.354557
    9611           0     -1854.829468    736.699951  -2625.000000     49.573124
    9612           0     -1854.829468    736.699951  -2874.999756     49.406296
    9613           0     -1854.829468    736.699951  -3125.000000     49.696850
    9614           0     -1854.829468    736.699951  -3375.000244     50.515682
    9615           0     -1854.829468    736.699951  -3625.000000     51.708458
    9616           0     -1854.829468    736.699951  -3875.000000     53.258522
    9617           0     -1854.829468    736.699951  -4125.000000     55.011810
    9618           0     -1854.829468    736.699951  -4375.000000     56.917667
    9619           0     -1854.829468    736.699951  -4625.000000     58.843872
    9620           0     -1854.829468    736.699951  -4875.000000     60.738911
    9621           0     -1854.829468    736.699951  -5125.000000     62.502666
    9622           0     -1854.829468    736.699951  -5375.000000     64.095764
    9623           0     -1854.829468    736.699951  -5625.000000     65.449081
    9624           0     -1854.829468    736.699951  -5875.000488     66.538506
    9625           0     -1854.829468    736.699951  -6125.000488     67.321449
    9626           0     -1854.829468    736.699951  -6375.000000     67.788666
    9627           0     -1854.829468    736.699951  -6625.000000     67.919861
    9628           0     -1854.829468    736.699951  -6875.000000     67.721725
    9629           0     -1854.829468    736.699951  -7124.999512     67.194588
    9630           0     -1854.829468    736.699951  -7374.999023     66.363457
    9631           0     -1854.829468    736.699951  -7625.000000     65.250031
    9632           0     -1854.829468    736.699951  -7875.000000     63.903748
    9633           0     -1854.829468    736.699951  -8125.000000     62.371025
    9634           0     -1854.829468    736.699951  -8375.000000     60.735352
    9635           0     -1854.829468    736.699951  -8625.000000     59.071411
    9636           0     -1854.829468    736.699951  -8875.000000     57.508659
    9637           0     -1854.829468    736.699951  -9125.000000     56.145554
    9638           0     -1854.829468    736.699951  -9375.000000     55.159851
    9639           0     -1854.829468    736.699951  -9625.000000     54.645241
    9640           0     -1854.829468    736.699951  -9875.000000     54.797092
    9641           0     -1854.829468    736.699951  -10124.99902     55.640301
    9642           0     -1854.829468    736.699890  -10374.99902     57.327019
    9643           0     -1854.829468    736.699890  -10625.00000     59.761345
    9644           0     -1854.829468    736.699890  -10875.00000     63.015427
    9645           0     -1854.829468    736.699890  -11125.00000     66.915520
    9646           0     -1854.829468    736.699890  -11375.00000     71.449348
    9647           0     -1854.829468    736.699890  -11625.00000     76.509003
    9648           0     -1854.829468    736.699890  -11875.00000     81.928474
    9649           0     -1854.829468    736.699890  -12125.00000     87.884262
    9650           0     -1854.829468    736.699890  -12374.99902     93.865417
    9651           0     -1854.829468    736.699890  -12625.00000    100.734192
    9652           0     -1854.829468    736.699890  -12874.99902    105.926292
    9653           0     -1854.829468    736.699890  -13124.99902    118.288635
    9654           0     -1854.829468    736.699951  -13374.99902    110.436867
    9655           0     -1894.423584    627.916016   -124.999985     79.255936
    9656           0     -1894.423584    627.916016   -375.000000     87.089729
    9657           0     -1894.423584    627.916016   -624.999939     75.847816
    9658           0     -1894.423584    627.916016   -875.000000     69.971397
    9659           0     -1894.423584    627.916016  -1125.000000     64.387123
    9660           0     -1894.423584    627.916016  -1375.000122     58.718613
    9661           0     -1894.423584    627.916016  -1625.000000     53.869781
    9662           0     -1894.423584    627.916016  -1874.999756     49.368130
    9663           0     -1894.423584    627.916016  -2125.000000     45.783306
    9664           0     -1894.423584    627.916016  -2375.000244     43.056984
    9665           0     -1894.423584    627.916016  -2624.999756     41.642689
    9666           0     -1894.423584    627.916016  -2874.999512     41.442181
    9667           0     -1894.423584    627.916016  -3124.999756     42.604206
    9668           0     -1894.423584    627.916016  -3375.000244     44.770313
    9669           0     -1894.423584    627.916016  -3625.000244     47.814953
    9670           0     -1894.423584    627.916016  -3875.000244     51.329517
    9671           0     -1894.423584    627.916016  -4125.000000     55.167839
    9672           0     -1894.423584    627.916016  -4375.000000     59.042179
    9673           0     -1894.423584    627.916016  -4625.000000     62.864449
    9674           0     -1894.423584    627.916016  -4875.000000     66.460335
    9675           0     -1894.423584    627.916016  -5124.999512     69.784721
    9676           0     -1894.423584    627.916016  -5374.999512     72.735901
    9677           0     -1894.423584    627.916016  -5625.000000     75.292274
    9678           0     -1894.423584    627.916016  -5875.000488     77.396812
    9679           0     -1894.423584    627.916016  -6125.000977     79.041611
    9680           0     -1894.423584    627.916016  -6375.000488     80.199738
    9681           0     -1894.423584    627.916016  -6625.000000     80.872589
    9682           0     -1894.423584    627.916016  -6875.000488     81.055435
    9683           0     -1894.423584    627.916016  -7124.999512     80.758759
    9684           0     -1894.423584    627.916016  -7374.999023     79.999428
    9685           0     -1894.423584    627.916016  -7625.000000     78.799431
    9686           0     -1894.423584    627.916016  -7875.000000     77.199867
    9687           0     -1894.423584    627.916016  -8124.999023     75.242004
    9688           0     -1894.423584    627.916016  -8374.999023     72.998665
    9689           0     -1894.423584    627.916016  -8625.000000     70.544243
    9690           0     -1894.423584    627.916016  -8875.000977     67.992943
    9691           0     -1894.423584    627.916016  -9125.000000     65.474449
    9692           0     -1894.423584    627.916016  -9374.999023     63.151672
    9693           0     -1894.423584    627.916016  -9625.000000     61.227566
    9694           0     -1894.423584    627.916016  -9875.000000     59.884331
    9695           0     -1894.423584    627.916016  -10125.00000     59.384525
    9696           0     -1894.423584    627.916016  -10375.00000     59.812202
    9697           0     -1894.423584    627.916016  -10624.99902     61.425667
    9698           0     -1894.423584    627.916016  -10875.00097     64.036598
    9699           0     -1894.423584    627.916016  -11125.00097     67.911568
    9700           0     -1894.423584    627.916016  -11375.00000     72.508232
    9701           0     -1894.423584    627.916016  -11625.00000     78.292229
    9702           0     -1894.423584    627.916016  -11875.00000     84.336098
    9703           0     -1894.423584    627.916016  -12125.00000     91.593475
    9704           0     -1894.423584    627.916016  -12374.99902     98.524277
    9705           0     -1894.423584    627.916016  -12625.00000    106.872726
    9706           0     -1894.423584    627.916016  -12874.99902    114.817703
    9707           0     -1894.423584    627.916016  -13124.99804    122.574875
    9708           0     -1894.423584    627.916016  -13374.99902    131.059189
    9709           0     -1924.500366    515.667969   -124.999985     86.835411
    9710           0     -1924.500366    515.667969   -374.999969     97.387306
    9711           0     -1924.500366    515.667969   -624.999939     80.300606
    9712           0     -1924.500366    515.667969   -874.999878     72.195740
    9713           0     -1924.500366    515.667969  -1124.999878     63.959843
    9714           0     -1924.500366    515.667969  -1375.000244     55.277813
    9715           0     -1924.500366    515.667969  -1625.000000     48.026138
    9716           0     -1924.500366    515.667969  -1874.999512     41.476246
    9717           0     -1924.500366    515.667969  -2125.000244     37.024155
    9718           0     -1924.500366    515.667969  -2375.000244     34.937950
    9719           0     -1924.500366    515.667969  -2624.999756     35.726768
    9720           0     -1924.500366    515.667969  -2874.999512     38.973141
    9721           0     -1924.500366    515.667969  -3124.999512     43.866310
    9722           0     -1924.500366    515.667969  -3375.000488     49.739796
    9723           0     -1924.500366    515.667969  -3625.000488     55.973328
    9724           0     -1924.500366    515.667969  -3875.000244     62.296070
    9725           0     -1924.500366    515.667969  -4125.000488     68.419334
    9726           0     -1924.500366    515.667969  -4375.000488     74.253479
    9727           0     -1924.500366    515.667969  -4625.000488     79.661560
    9728           0     -1924.500366    515.667969  -4874.999512     84.614029
    9729           0     -1924.500366    515.667969  -5124.999512     89.043549
    9730           0     -1924.500366    515.667969  -5374.999023     92.941231
    9731           0     -1924.500366    515.667969  -5625.000000     96.276390
    9732           0     -1924.500366    515.667969  -5875.000977     99.046791
    9733           0     -1924.500366    515.667969  -6125.000977    101.241928
    9734           0     -1924.500366    515.667969  -6375.000000    102.862534
    9735           0     -1924.500366    515.667969  -6625.000000    103.911743
    9736           0     -1924.500366    515.667969  -6875.000977    104.391296
    9737           0     -1924.500366    515.667969  -7124.999023    104.315575
    9738           0     -1924.500366    515.667969  -7374.998535    103.688034
    9739           0     -1924.500366    515.667969  -7625.000000    102.535988
    9740           0     -1924.500366    515.667969  -7875.000000    100.867393
    9741           0     -1924.500366    515.667969  -8124.999023     98.728218
    9742           0     -1924.500366    515.667969  -8374.999023     96.136604
    9743           0     -1924.500366    515.667969  -8625.000000     93.168137
    9744           0     -1924.500366    515.667969  -8875.000977     89.862465
    9745           0     -1924.500366    515.667969  -9125.000000     86.345177
    9746           0     -1924.500366    515.667969  -9374.998047     82.694916
    9747           0     -1924.500366    515.667969  -9625.000000     79.113853
    9748           0     -1924.500366    515.667969  -9875.000000     75.750435
    9749           0     -1924.500366    515.667969  -10125.00000     72.900658
    9750           0     -1924.500366    515.667969  -10375.00000     70.799675
    9751           0     -1924.500366    515.667969  -10624.99804     69.771889
    9752           0     -1924.500366    515.667969  -10875.00195     70.092865
    9753           0     -1924.500366    515.667969  -11125.00195     71.864609
    9754           0     -1924.500366    515.667969  -11375.00000     75.337662
    9755           0     -1924.500366    515.667969  -11625.00000     80.077248
    9756           0     -1924.500366    515.667969  -11875.00000     86.530991
    9757           0     -1924.500366    515.667969  -12125.00000     93.475311
    9758           0     -1924.500366    515.667969  -12375.00000    102.267426
    9759           0     -1924.500366    515.667969  -12625.00000    110.406204
    9760           0     -1924.500366    515.667969  -12874.99804    119.356575
    9761           0     -1924.500366    515.667969  -13124.99609    136.111877
    9762           0     -1924.500366    515.667969  -13374.99804    127.229637
    9763           0     -1954.577148    403.420013   -124.999992    105.339958
    9764           0     -1954.577148    403.420013   -375.000000    102.707153
    9765           0     -1954.577148    403.420013   -625.000000     86.524559
    9766           0     -1954.577148    403.420013   -874.999939     76.698509
    9767           0     -1954.577148    403.420013  -1125.000000     63.746033
    9768           0     -1954.577148    403.420013  -1375.000122     53.368832
    9769           0     -1954.577148    403.420013  -1625.000000     42.435738
    9770           0     -1954.577148    403.420013  -1874.999756     34.873486
    9771           0     -1954.577148    403.420013  -2125.000000     30.625011
    9772           0     -1954.577148    403.420013  -2375.000000     32.280186
    9773           0     -1954.577148    403.420013  -2625.000000     38.007141
    9774           0     -1954.577148    403.420013  -2874.999756     46.173428
    9775           0     -1954.577148    403.420013  -3125.000000     55.143326
    9776           0     -1954.577148    403.420013  -3375.000244     64.256424
    9777           0     -1954.577148    403.420013  -3625.000000     73.097618
    9778           0     -1954.577148    403.420013  -3875.000000     81.483261
    9779           0     -1954.577148    403.420013  -4125.000000     89.297920
    9780           0     -1954.577148    403.420013  -4375.000000     96.487617
    9781           0     -1954.577148    403.420013  -4625.000000    103.017326
    9782           0     -1954.577148    403.420013  -4875.000000    108.878647
    9783           0     -1954.577148    403.420013  -5125.000000    114.062698
    9784           0     -1954.577148    403.420013  -5375.000000    118.579247
    9785           0     -1954.577148    403.420013  -5625.000000    122.427765
    9786           0     -1954.577148    403.420013  -5875.000488    125.625496
    9787           0     -1954.577148    403.420013  -6125.000488    128.173660
    9788           0     -1954.577148    403.420013  -6375.000000    130.090790
    9789           0     -1954.577148    403.420013  -6625.000000    131.376648
    9790           0     -1954.577148    403.420013  -6875.000000    132.050797
    9791           0     -1954.577148    403.420013  -7124.999512    132.110382
    9792           0     -1954.577148    403.420013  -7374.999023    131.576401
    9793           0     -1954.577148    403.420013  -7625.000000    130.443756
    9794           0     -1954.577148    403.420013  -7875.000000    128.740280
    9795           0     -1954.577148    403.420013  -8125.000000    126.459938
    9796           0     -1954.577148    403.420013  -8375.000000    123.646667
    9797           0     -1954.577148    403.420013  -8625.000000    120.297363
    9798           0     -1954.577148    403.420013  -8875.000000    116.490875
    9799           0     -1954.577148    403.420013  -9125.000000    112.233116
    9800           0     -1954.577148    403.420013  -9375.000000    107.669640
    9801           0     -1954.577148    403.420013  -9625.000000    102.831108
    9802           0     -1954.577148    403.420013  -9875.000000     97.985229
    9803           0     -1954.577148    403.420013  -10124.99902     93.208527
    9804           0     -1954.577148    403.420013  -10374.99902     88.968719
    9805           0     -1954.577148    403.420013  -10625.00000     85.398102
    9806           0     -1954.577148    403.420013  -10875.00000     83.192711
    9807           0     -1954.577148    403.419983  -11125.00000     82.422981
    9808           0     -1954.577148    403.419983  -11375.00000     83.799416
    9809           0     -1954.577148    403.419983  -11625.00000     87.027695
    9810           0     -1954.577148    403.419983  -11875.00000     92.437729
    9811           0     -1954.577148    403.419983  -12125.00000     99.372231
    9812           0     -1954.577148    403.419983  -12374.99902    107.781715
    9813           0     -1954.577148    403.419983  -12625.00000    117.348610
    9814           0     -1954.577148    403.419983  -12874.99902    125.972481
    9815           0     -1954.577148    403.419983  -13124.99902    144.919815
    9816           0     -1954.577148    403.420013  -13374.99902    135.095413
    9817           0     -1974.679565    289.413330   -124.999985    100.915588
    9818           0     -1974.679565    289.413330   -375.000000    100.168602
    9819           0     -1974.679565    289.413330   -624.999939     81.871231
    9820           0     -1974.679565    289.413330   -875.000000     71.022049
    9821           0     -1974.679565    289.413330  -1125.000000     57.235554
    9822           0     -1974.679565    289.413330  -1375.000122     46.186783
    9823           0     -1974.679565    289.413330  -1625.000000     36.705288
    9824           0     -1974.679565    289.413330  -1874.999756     32.793736
    9825           0     -1974.679565    289.413330  -2125.000000     34.986137
    9826           0     -1974.679565    289.413330  -2375.000244     42.142429
    9827           0     -1974.679565    289.413330  -2624.999756     51.634892
    9828           0     -1974.679565    289.413330  -2874.999512     61.799183
    9829           0     -1974.679565    289.413330  -3124.999756     71.989113
    9830           0     -1974.679565    289.413330  -3375.000244     81.702019
    9831           0     -1974.679565    289.413330  -3625.000244     90.876289
    9832           0     -1974.679565    289.413330  -3875.000244     99.324829
    9833           0     -1974.679565    289.413330  -4125.000000    107.098999
    9834           0     -1974.679565    289.413330  -4375.000000    114.120842
    9835           0     -1974.679565    289.413330  -4625.000000    120.459099
    9836           0     -1974.679565    289.413330  -4875.000000    126.083427
    9837           0     -1974.679565    289.413330  -5124.999512    131.056183
    9838           0     -1974.679565    289.413330  -5374.999512    135.369232
    9839           0     -1974.679565    289.413330  -5625.000000    139.073059
    9840           0     -1974.679565    289.413330  -5875.000488    142.168045
    9841           0     -1974.679565    289.413330  -6125.000977    144.692245
    9842           0     -1974.679565    289.413330  -6375.000488    146.648560
    9843           0     -1974.679565    289.413330  -6625.000000    148.062515
    9844           0     -1974.679565    289.413330  -6875.000488    148.936340
    9845           0     -1974.679565    289.413330  -7124.999512    149.286118
    9846           0     -1974.679565    289.413330  -7374.999023    149.109955
    9847           0     -1974.679565    289.413330  -7625.000000    148.418930
    9848           0     -1974.679565    289.413330  -7875.000000    147.207672
    9849           0     -1974.679565    289.413330  -8124.999023    145.486801
    9850           0     -1974.679565    289.413330  -8374.999023    143.250092
    9851           0     -1974.679565    289.413330  -8625.000000    140.515594
    9852           0     -1974.679565    289.413330  -8875.000977    137.282745
    9853           0     -1974.679565    289.413330  -9125.000000    133.593170
    9854           0     -1974.679565    289.413330  -9374.999023    129.460495
    9855           0     -1974.679565    289.413361  -9625.000000    124.980141
    9856           0     -1974.679565    289.413361  -9875.000000    120.196045
    9857           0     -1974.679565    289.413361  -10125.00000    115.312378
    9858           0     -1974.679565    289.413361  -10375.00000    110.419533
    9859           0     -1974.679565    289.413361  -10624.99902    105.922676
    9860           0     -1974.679565    289.413361  -10875.00097    101.934799
    9861           0     -1974.679565    289.413361  -11125.00097     99.173386
    9862           0     -1974.679565    289.413361  -11375.00000     97.555450
    9863           0     -1974.679565    289.413361  -11625.00000     98.173515
    9864           0     -1974.679565    289.413361  -11875.00000    100.119255
    9865           0     -1974.679565    289.413361  -12125.00000    105.070541
    9866           0     -1974.679565    289.413361  -12374.99902    110.366089
    9867           0     -1974.679565    289.413361  -12625.00000    119.430397
    9868           0     -1974.679565    289.413361  -12874.99902    127.297829
    9869           0     -1974.679565    289.413361  -13124.99804    138.047226
    9870           0     -1974.679565    289.413330  -13374.99902    150.082870
    9871           0     -1984.807617    173.647873   -124.999985     78.640976
    9872           0     -1984.807617    173.647873   -374.999969     87.409126
    9873           0     -1984.807617    173.647873   -624.999939     67.724861
    9874           0     -1984.807617    173.647873   -874.999878     56.723351
    9875           0     -1984.807617    173.647873  -1124.999878     47.546024
    9876           0     -1984.807617    173.647873  -1375.000244     41.483383
    9877           0     -1984.807617    173.647873  -1625.000000     42.147972
    9878           0     -1984.807617    173.647873  -1874.999512     47.407551
    9879           0     -1984.807617    173.647873  -2125.000244     55.744602
    9880           0     -1984.807617    173.647873  -2375.000244     65.215561
    9881           0     -1984.807617    173.647873  -2624.999756     74.827469
    9882           0     -1984.807617    173.647873  -2874.999512     84.180908
    9883           0     -1984.807617    173.647873  -3124.999512     92.914917
    9884           0     -1984.807617    173.647873  -3375.000488    101.042015
    9885           0     -1984.807617    173.647873  -3625.000488    108.416672
    9886           0     -1984.807617    173.647873  -3875.000244    115.138664
    9887           0     -1984.807617    173.647873  -4125.000488    121.151924
    9888           0     -1984.807617    173.647888  -4375.000488    126.563255
    9889           0     -1984.807617    173.647888  -4625.000488    131.357742
    9890           0     -1984.807617    173.647888  -4874.999512    135.626877
    9891           0     -1984.807617    173.647888  -5124.999512    139.374084
    9892           0     -1984.807617    173.647888  -5374.999023    142.671570
    9893           0     -1984.807617    173.647888  -5625.000000    145.527512
    9894           0     -1984.807617    173.647888  -5875.000977    147.995285
    9895           0     -1984.807617    173.647888  -6125.000977    150.083023
    9896           0     -1984.807617    173.647888  -6375.000000    151.825394
    9897           0     -1984.807617    173.647888  -6625.000000    153.227936
    9898           0     -1984.807617    173.647873  -6875.000977    154.309143
    9899           0     -1984.807617    173.647873  -7124.999023    155.069763
    9900           0     -1984.807617    173.647873  -7374.998535    155.514053
    9901           0     -1984.807617    173.647888  -7625.000000    155.638306
    9902           0     -1984.807617    173.647888  -7875.000000    155.434341
    9903           0     -1984.807617    173.647888  -8124.999023    154.895126
    9904           0     -1984.807617    173.647888  -8374.999023    154.001816
    9905           0     -1984.807617    173.647888  -8625.000000    152.747894
    9906           0     -1984.807617    173.647888  -8875.000977    151.107956
    9907           0     -1984.807617    173.647888  -9125.000000    149.081558
    9908           0     -1984.807617    173.647888  -9374.998047    146.644989
    9909           0     -1984.807617    173.647888  -9625.000000    143.815674
    9910           0     -1984.807617    173.647888  -9875.000000    140.585327
    9911           0     -1984.807617    173.647888  -10125.00000    137.012543
    9912           0     -1984.807617    173.647888  -10375.00000    133.126404
    9913           0     -1984.807617    173.647888  -10624.99804    129.065323
    9914           0     -1984.807617    173.647888  -10875.00195    124.928871
    9915           0     -1984.807617    173.647888  -11125.00195    120.986855
    9916           0     -1984.807617    173.647888  -11375.00000    117.439392
    9917           0     -1984.807617    173.647888  -11625.00000    114.727509
    9918           0     -1984.807617    173.647888  -11875.00000    113.122131
    9919           0     -1984.807617    173.647888  -12125.00000    113.181290
    9920           0     -1984.807617    173.647888  -12375.00000    114.945930
    9921           0     -1984.807617    173.647903  -12625.00000    119.236153
    9922           0     -1984.807617    173.647903  -12874.99804    123.359406
    9923           0     -1984.807617    173.647903  -13124.99609    135.610168
    9924           0     -1984.807617    173.647888  -13374.99804    131.696640
    9925           0     -1994.935791     57.882427   -124.999992     67.997810
    9926           0     -1994.935791     57.882427   -375.000000     72.883629
    9927           0     -1994.935791     57.882427   -625.000000     57.867603
    9928           0     -1994.935791     57.882427   -874.999939     50.091110
    9929           0     -1994.935791     57.882427  -1125.000000     46.717781
    9930           0     -1994.935791     57.882427  -1375.000122     50.399040
    9931           0     -1994.935791     57.882427  -1625.000000     58.806938
    9932           0     -1994.935791     57.882427  -1874.999756     69.198349
    9933           0     -1994.935791     57.882427  -2125.000000     79.852562
    9934           0     -1994.935791     57.882427  -2375.000000     89.965073
    9935           0     -1994.935791     57.882427  -2625.000000     99.250908
    9936           0     -1994.935791     57.882427  -2874.999756    107.551964
    9937           0     -1994.935791     57.882427  -3125.000000    114.929665
    9938           0     -1994.935791     57.882427  -3375.000244    121.378479
    9939           0     -1994.935791     57.882427  -3625.000000    127.028114
    9940           0     -1994.935791     57.882427  -3875.000000    131.918488
    9941           0     -1994.935791     57.882427  -4125.000000    136.178284
    9942           0     -1994.935791     57.882427  -4375.000000    139.860352
    9943           0     -1994.935791     57.882427  -4625.000000    143.072617
    9944           0     -1994.935791     57.882427  -4875.000000    145.866974
    9945           0     -1994.935791     57.882427  -5125.000000    148.326462
    9946           0     -1994.935791     57.882427  -5375.000000    150.494324
    9947           0     -1994.935791     57.882427  -5625.000000    152.430496
    9948           0     -1994.935791     57.882427  -5875.000488    154.166718
    9949           0     -1994.935791     57.882427  -6125.000488    155.741135
    9950           0     -1994.935791     57.882427  -6375.000000    157.174820
    9951           0     -1994.935791     57.882427  -6625.000000    158.487015
    9952           0     -1994.935791     57.882423  -6875.000000    159.686981
    9953           0     -1994.935791     57.882420  -7124.999512    160.776245
    9954           0     -1994.935791     57.882420  -7374.999023    161.755371
    9955           0     -1994.935791     57.882420  -7625.000000    162.607681
    9956           0     -1994.935791     57.882420  -7875.000000    163.325333
    9957           0     -1994.935791     57.882420  -8125.000000    163.873871
    9958           0     -1994.935791     57.882420  -8375.000000    164.239441
    9959           0     -1994.935791     57.882420  -8625.000000    164.368195
    9960           0     -1994.935791     57.882420  -8875.000000    164.242722
    9961           0     -1994.935791     57.882420  -9125.000000    163.791046
    9962           0     -1994.935791     57.882420  -9375.000000    162.998718
    9963           0     -1994.935791     57.882420  -9625.000000    161.776352
    9964           0     -1994.935791     57.882420  -9875.000000    160.125046
    9965           0     -1994.935791     57.882420  -10124.99902    157.945862
    9966           0     -1994.935791     57.882420  -10374.99902    155.279404
    9967           0     -1994.935791     57.882420  -10625.00000    152.033386
    9968           0     -1994.935791     57.882420  -10875.00000    148.335266
    9969           0     -1994.935791     57.882420  -11125.00000    144.133331
    9970           0     -1994.935791     57.882420  -11375.00000    139.739059
    9971           0     -1994.935791     57.882420  -11625.00000    135.198608
    9972           0     -1994.935791     57.882420  -11875.00000    131.197617
    9973           0     -1994.935791     57.882420  -12125.00000    127.809502
    9974           0     -1994.935791     57.882420  -12374.99902    126.370003
    9975           0     -1994.935791     57.882420  -12625.00000    125.881203
    9976           0     -1994.935791     57.882420  -12874.99902    127.097603
    9977           0     -1994.935791     57.882420  -13124.99902    133.956512
    9978           0     -1994.935791     57.882423  -13374.99902    119.931702
    9979           0     -1997.493652    -50.000221   -124.999985     51.288029
    9980           0     -1997.493652    -50.000221   -375.000000     52.865299
    9981           0     -1997.493652    -50.000221   -624.999939     48.732765
    9982           0     -1997.493652    -50.000221   -875.000000     49.709522
    9983           0     -1997.493652    -50.000221  -1125.000000     53.366238
    9984           0     -1997.493652    -50.000221  -1375.000122     61.439072
    9985           0     -1997.493652    -50.000221  -1625.000000     70.602165
    9986           0     -1997.493652    -50.000221  -1874.999756     80.102776
    9987           0     -1997.493652    -50.000221  -2125.000000     88.821800
    9988           0     -1997.493652    -50.000221  -2375.000000     96.618813
    9989           0     -1997.493652    -50.000221  -2625.000000    103.271660
    9990           0     -1997.493652    -50.000221  -2874.999512    108.894913
    9991           0     -1997.493652    -50.000221  -3124.999756    113.513733
    9992           0     -1997.493652    -50.000221  -3375.000244    117.292801
    9993           0     -1997.493652    -50.000221  -3625.000244    120.325089
    9994           0     -1997.493652    -50.000221  -3875.000244    122.760353
    9995           0     -1997.493652    -50.000221  -4125.000000    124.705208
    9996           0     -1997.493652    -50.000221  -4375.000000    126.279877
    9997           0     -1997.493652    -50.000221  -4625.000000    127.580849
    9998           0     -1997.493652    -50.000221  -4875.000000    128.698441
    9999           0     -1997.493652    -50.000221  -5125.000000    129.708298
   10000           0     -1997.493652    -50.000221  -5374.999512    130.676025
   10001           0     -1997.493652    -50.000221  -5625.000000    131.654602
   10002           0     -1997.493652    -50.000221  -5875.000000    132.685425
   10003           0     -1997.493652    -50.000221  -6125.000000    133.804520
   10004           0     -1997.493652    -50.000221  -6375.000000    135.029846
   10005           0     -1997.493652    -50.000221  -6625.000000    136.380981
   10006           0     -1997.493652    -50.000221  -6875.000000    137.859985
   10007           0     -1997.493652    -50.000221  -7124.999023    139.472229
   10008           0     -1997.493652    -50.000221  -7374.999512    141.200546
   10009           0     -1997.493652    -50.000221  -7625.000000    143.040710
   10010           0     -1997.493652    -50.000221  -7875.000000    144.957352
   10011           0     -1997.493652    -50.000221  -8125.000000    146.937332
   10012           0     -1997.493652    -50.000221  -8375.000000    148.924011
   10013           0     -1997.493652    -50.000221  -8625.000000    150.898026
   10014           0     -1997.493652    -50.000221  -8875.000000    152.780594
   10015           0     -1997.493652    -50.000221  -9125.000000    154.545319
   10016           0     -1997.493652    -50.000221  -9375.000000    156.088837
   10017           0     -1997.493652    -50.000221  -9625.000000    157.384308
   10018           0     -1997.493652    -50.000221  -9875.000000    158.305389
   10019           0     -1997.493652    -50.000221  -10125.00000    158.833374
   10020           0     -1997.493652    -50.000221  -10375.00000    158.824448
   10021           0     -1997.493652    -50.000221  -10625.00000    158.293137
   10022           0     -1997.493652    -50.000221  -10875.00097    157.100479
   10023           0     -1997.493652    -50.000221  -11125.00097    155.330566
   10024           0     -1997.493652    -50.000221  -11375.00000    152.912781
   10025           0     -1997.493652    -50.000221  -11625.00000    150.050644
   10026           0     -1997.493652    -50.000221  -11875.00000    146.841354
   10027           0     -1997.493652    -50.000221  -12125.00000    143.588287
   10028           0     -1997.493652    -50.000221  -12375.00000    140.555527
   10029           0     -1997.493652    -50.000221  -12625.00000    137.474289
   10030           0     -1997.493652    -50.000221  -12875.00000    133.907776
   10031           0     -1997.493652    -50.000221  -13124.99804    130.242111
   10032           0     -1997.493652    -50.000221  -13374.99902    117.823769
   10033           0     -1992.480957   -150.000076   -124.999985     26.993479
   10034           0     -1992.480957   -150.000076   -375.000000     40.502216
   10035           0     -1992.480957   -150.000076   -625.000000     47.519016
   10036           0     -1992.480957   -150.000076   -874.999939     56.300797
   10037           0     -1992.480957   -150.000076  -1125.000000     62.657494
   10038           0     -1992.480957   -150.000076  -1375.000122     68.894882
   10039           0     -1992.480957   -150.000076  -1625.000000     74.225128
   10040           0     -1992.480957   -150.000076  -1874.999756     78.847389
   10041           0     -1992.480957   -150.000076  -2125.000000     82.563797
   10042           0     -1992.480957   -150.000076  -2375.000000     85.391975
   10043           0     -1992.480957   -150.000076  -2625.000000     87.340065
   10044           0     -1992.480957   -150.000076  -2874.999756     88.495972
   10045           0     -1992.480957   -150.000076  -3125.000000     88.970825
   10046           0     -1992.480957   -150.000076  -3375.000244     88.904175
   10047           0     -1992.480957   -150.000076  -3625.000244     88.431160
   10048           0     -1992.480957   -150.000076  -3875.000000     87.704002
   10049           0     -1992.480957   -150.000076  -4125.000000     86.840523
   10050           0     -1992.480957   -150.000076  -4375.000000     85.977089
   10051           0     -1992.480957   -150.000076  -4625.000000     85.200401
   10052           0     -1992.480957   -150.000076  -4875.000000     84.615852
   10053           0     -1992.480957   -150.000076  -5124.999512     84.278145
   10054           0     -1992.480957   -150.000076  -5374.999512     84.254364
   10055           0     -1992.480957   -150.000076  -5625.000000     84.569832
   10056           0     -1992.480957   -150.000076  -5875.000488     85.259338
   10057           0     -1992.480957   -150.000076  -6125.000488     86.322311
   10058           0     -1992.480957   -150.000076  -6375.000000     87.771042
   10059           0     -1992.480957   -150.000076  -6625.000000     89.590050
   10060           0     -1992.480957   -150.000076  -6875.000000     91.774765
   10061           0     -1992.480957   -150.000076  -7124.999023     94.302437
   10062           0     -1992.480957   -150.000076  -7374.999023     97.161736
   10063           0     -1992.480957   -150.000076  -7625.000000    100.324280
   10064           0     -1992.480957   -150.000076  -7875.000000    103.772148
   10065           0     -1992.480957   -150.000076  -8125.000000    107.471680
   10066           0     -1992.480957   -150.000076  -8375.000000    111.397903
   10067           0     -1992.480957   -150.000076  -8625.000000    115.505966
   10068           0     -1992.480957   -150.000076  -8875.000000    119.758804
   10069           0     -1992.480957   -150.000076  -9125.000000    124.098213
   10070           0     -1992.480957   -150.000076  -9374.999023    128.471085
   10071           0     -1992.480957   -150.000076  -9625.000000    132.800232
   10072           0     -1992.480957   -150.000076  -9875.000000    137.015457
   10073           0     -1992.480957   -150.000076  -10125.00000    141.021820
   10074           0     -1992.480957   -150.000076  -10375.00000    144.738174
   10075           0     -1992.480957   -150.000076  -10625.00000    148.059113
   10076           0     -1992.480957   -150.000076  -10875.00097    150.907135
   10077           0     -1992.480957   -150.000076  -11125.00000    153.193359
   10078           0     -1992.480957   -150.000076  -11375.00000    154.852722
   10079           0     -1992.480957   -150.000076  -11625.00000    155.850616
   10080           0     -1992.480957   -150.000076  -11875.00000    156.077850
   10081           0     -1992.480957   -150.000076  -12125.00000    155.543167
   10082           0     -1992.480957   -150.000076  -12374.99902    153.737213
   10083           0     -1992.480957   -150.000076  -12625.00000    150.805786
   10084           0     -1992.480957   -150.000076  -12874.99902    143.786926
   10085           0     -1992.480957   -150.000076  -13124.99804    135.834976
   10086           0     -1992.480957   -150.000076  -13374.99902    116.550507
   10087           0     -1979.795044   -273.648315   -124.999992     37.401875
   10088           0     -1979.795044   -273.648315   -375.000000     44.681606
   10089           0     -1979.795044   -273.648315   -625.000000     48.630901
   10090           0     -1979.795044   -273.648315   -875.000000     54.748226
   10091           0     -1979.795044   -273.648315  -1125.000000     61.003521
   10092           0     -1979.795044   -273.648315  -1375.000000     68.351227
   10093           0     -1979.795044   -273.648315  -1625.000000     75.148346
   10094           0     -1979.795044   -273.648315  -1875.000000     81.671684
   10095           0     -1979.795044   -273.648315  -2125.000000     87.116447
   10096           0     -1979.795044   -273.648315  -2375.000000     91.715370
   10097           0     -1979.795044   -273.648315  -2625.000000     95.207794
   10098           0     -1979.795044   -273.648315  -2875.000000     97.818085
   10099           0     -1979.795044   -273.648315  -3125.000000     99.542770
   10100           0     -1979.795044   -273.648315  -3375.000000    100.583145
   10101           0     -1979.795044   -273.648315  -3625.000000    101.032478
   10102           0     -1979.795044   -273.648315  -3875.000000    101.057953
   10103           0     -1979.795044   -273.648315  -4125.000000    100.774384
   10104           0     -1979.795044   -273.648315  -4375.000000    100.311943
   10105           0     -1979.795044   -273.648315  -4625.000000     99.774971
   10106           0     -1979.795044   -273.648315  -4875.000000     99.259056
   10107           0     -1979.795044   -273.648315  -5125.000000     98.845642
   10108           0     -1979.795044   -273.648315  -5375.000000     98.599121
   10109           0     -1979.795044   -273.648315  -5625.000000     98.575050
   10110           0     -1979.795044   -273.648315  -5875.000000     98.810867
   10111           0     -1979.795044   -273.648315  -6125.000000     99.337814
   10112           0     -1979.795044   -273.648315  -6375.000000    100.171539
   10113           0     -1979.795044   -273.648315  -6625.000000    101.322350
   10114           0     -1979.795044   -273.648315  -6875.000000    102.788597
   10115           0     -1979.795044   -273.648315  -7124.999512    104.564697
   10116           0     -1979.795044   -273.648315  -7375.000000    106.635620
   10117           0     -1979.795044   -273.648315  -7625.000000    108.983452
   10118           0     -1979.795044   -273.648315  -7875.000000    111.580437
   10119           0     -1979.795044   -273.648315  -8125.000000    114.399864
   10120           0     -1979.795044   -273.648315  -8375.000000    117.399658
   10121           0     -1979.795044   -273.648315  -8625.000000    120.546005
   10122           0     -1979.795044   -273.648315  -8875.000000    123.777420
   10123           0     -1979.795044   -273.648315  -9125.000000    127.059029
   10124           0     -1979.795044   -273.648315  -9375.000000    130.300446
   10125           0     -1979.795044   -273.648315  -9625.000000    133.477585
   10126           0     -1979.795044   -273.648315  -9875.000000    136.458237
   10127           0     -1979.795044   -273.648315  -10125.00000    139.258408
   10128           0     -1979.795044   -273.648315  -10375.00000    141.681961
   10129           0     -1979.795044   -273.648315  -10625.00000    143.846390
   10130           0     -1979.795044   -273.648315  -10875.00000    145.454422
   10131           0     -1979.795044   -273.648315  -11125.00000    146.844788
   10132           0     -1979.795044   -273.648315  -11375.00000    147.534637
   10133           0     -1979.795044   -273.648315  -11625.00000    148.300110
   10134           0     -1979.795044   -273.648315  -11875.00000    148.242722
   10135           0     -1979.795044   -273.648315  -12125.00000    148.922668
   10136           0     -1979.795044   -273.648315  -12374.99902    148.357788
   10137           0     -1979.795044   -273.648315  -12625.00000    149.615417
   10138           0     -1979.795044   -273.648315  -12875.00000    147.614670
   10139           0     -1979.795044   -273.648315  -13125.00000    148.018799
   10140           0     -1979.795044   -273.648315  -13375.00000    138.651382
   10141           0     -1954.577026   -403.420563   -124.999985     61.696285
   10142           0     -1954.577026   -403.420563   -375.000000     69.848030
   10143           0     -1954.577026   -403.420563   -624.999939     58.370533
   10144           0     -1954.577026   -403.420563   -875.000000     54.982059
   10145           0     -1954.577026   -403.420563  -1125.000000     54.798706
   10146           0     -1954.577026   -403.420563  -1375.000122     59.507160
   10147           0     -1954.577026   -403.420563  -1625.000000     67.051567
   10148           0     -1954.577026   -403.420563  -1874.999756     75.622200
   10149           0     -1954.577026   -403.420563  -2125.000000     84.123940
   10150           0     -1954.577026   -403.420563  -2375.000244     92.008926
   10151           0     -1954.577026   -403.420563  -2624.999756     99.065521
   10152           0     -1954.577026   -403.420563  -2874.999512    105.229431
   10153           0     -1954.577026   -403.420563  -3124.999756    110.523621
   10154           0     -1954.577026   -403.420563  -3375.000244    115.011810
   10155           0     -1954.577026   -403.420563  -3625.000244    118.773865
   10156           0     -1954.577026   -403.420563  -3875.000244    121.905334
   10157           0     -1954.577026   -403.420563  -4125.000000    124.496094
   10158           0     -1954.577026   -403.420563  -4375.000000    126.640991
   10159           0     -1954.577026   -403.420563  -4625.000000    128.422195
   10160           0     -1954.577026   -403.420563  -4875.000000    129.919662
   10161           0     -1954.577026   -403.420563  -5124.999512    131.201462
   10162           0     -1954.577026   -403.420563  -5374.999512    132.328293
   10163           0     -1954.577026   -403.420563  -5625.000000    133.351913
   10164           0     -1954.577026   -403.420563  -5875.000488    134.313736
   10165           0     -1954.577026   -403.420563  -6125.000977    135.249374
   10166           0     -1954.577026   -403.420563  -6375.000488    136.182831
   10167           0     -1954.577026   -403.420563  -6625.000000    137.135300
   10168           0     -1954.577026   -403.420563  -6875.000488    138.114685
   10169           0     -1954.577026   -403.420563  -7124.999512    139.128342
   10170           0     -1954.577026   -403.420563  -7374.999023    140.171722
   10171           0     -1954.577026   -403.420563  -7625.000000    141.237442
   10172           0     -1954.577026   -403.420563  -7875.000000    142.310150
   10173           0     -1954.577026   -403.420563  -8124.999023    143.369019
   10174           0     -1954.577026   -403.420563  -8374.999023    144.389221
   10175           0     -1954.577026   -403.420563  -8625.000000    145.336685
   10176           0     -1954.577026   -403.420563  -8875.000977    146.180923
   10177           0     -1954.577026   -403.420563  -9125.000000    146.874771
   10178           0     -1954.577026   -403.420563  -9374.999023    147.391724
   10179           0     -1954.577026   -403.420563  -9625.000000    147.671066
   10180           0     -1954.577026   -403.420563  -9875.000000    147.710358
   10181           0     -1954.577026   -403.420563  -10125.00000    147.437408
   10182           0     -1954.577026   -403.420563  -10375.00000    146.910355
   10183           0     -1954.577026   -403.420563  -10624.99902    146.045776
   10184           0     -1954.577026   -403.420563  -10875.00097    145.028336
   10185           0     -1954.577026   -403.420563  -11125.00097    143.758240
   10186           0     -1954.577026   -403.420563  -11375.00000    142.652832
   10187           0     -1954.577026   -403.420563  -11625.00000    141.590118
   10188           0     -1954.577026   -403.420563  -11875.00000    141.372528
   10189           0     -1954.577026   -403.420563  -12125.00000    141.791550
   10190           0     -1954.577026   -403.420563  -12374.99902    144.180557
   10191           0     -1954.577026   -403.420563  -12625.00000    147.819641
   10192           0     -1954.577026   -403.420563  -12874.99902    151.541992
   10193           0     -1954.577026   -403.420563  -13124.99804    166.180420
   10194           0     -1954.577026   -403.420563  -13374.99902    146.510010
   10195           0     -1924.500244   -515.668518   -124.999985     77.894356
   10196           0     -1924.500244   -515.668518   -374.999969     87.977394
   10197           0     -1924.500244   -515.668518   -624.999939     70.391357
   10198           0     -1924.500244   -515.668518   -874.999878     62.793896
   10199           0     -1924.500244   -515.668518  -1124.999878     56.256470
   10200           0     -1924.500244   -515.668518  -1375.000244     52.420437
   10201           0     -1924.500244   -515.668518  -1625.000000     53.388897
   10202           0     -1924.500244   -515.668518  -1874.999512     57.214790
   10203           0     -1924.500244   -515.668518  -2125.000244     63.410484
   10204           0     -1924.500244   -515.668518  -2375.000244     70.488617
   10205           0     -1924.500244   -515.668518  -2624.999756     77.869270
   10206           0     -1924.500244   -515.668518  -2874.999512     85.057083
   10207           0     -1924.500244   -515.668518  -3124.999512     91.815125
   10208           0     -1924.500244   -515.668518  -3375.000488     98.045349
   10209           0     -1924.500244   -515.668518  -3625.000488    103.675133
   10210           0     -1924.500244   -515.668518  -3875.000244    108.731384
   10211           0     -1924.500244   -515.668518  -4125.000488    113.211815
   10212           0     -1924.500244   -515.668518  -4375.000488    117.176598
   10213           0     -1924.500244   -515.668518  -4625.000488    120.650116
   10214           0     -1924.500244   -515.668518  -4874.999512    123.695160
   10215           0     -1924.500244   -515.668518  -5124.999512    126.342148
   10216           0     -1924.500244   -515.668518  -5374.999023    128.644897
   10217           0     -1924.500244   -515.668518  -5625.000000    130.632339
   10218           0     -1924.500244   -515.668518  -5875.000977    132.345123
   10219           0     -1924.500244   -515.668518  -6125.000977    133.805313
   10220           0     -1924.500244   -515.668518  -6375.000000    135.042175
   10221           0     -1924.500244   -515.668518  -6625.000000    136.068771
   10222           0     -1924.500244   -515.668518  -6875.000977    136.903915
   10223           0     -1924.500244   -515.668518  -7124.999023    137.551758
   10224           0     -1924.500244   -515.668518  -7374.998535    138.021713
   10225           0     -1924.500244   -515.668518  -7625.000000    138.310379
   10226           0     -1924.500244   -515.668518  -7875.000000    138.420197
   10227           0     -1924.500244   -515.668518  -8124.999023    138.341156
   10228           0     -1924.500244   -515.668518  -8374.999023    138.073593
   10229           0     -1924.500244   -515.668518  -8625.000000    137.603210
   10230           0     -1924.500244   -515.668518  -8875.000977    136.935959
   10231           0     -1924.500244   -515.668518  -9125.000000    136.058975
   10232           0     -1924.500244   -515.668518  -9374.998047    134.996780
   10233           0     -1924.500244   -515.668518  -9625.000000    133.746964
   10234           0     -1924.500244   -515.668518  -9875.000000    132.380203
   10235           0     -1924.500244   -515.668579  -10125.00000    130.912048
   10236           0     -1924.500244   -515.668579  -10375.00000    129.509140
   10237           0     -1924.500244   -515.668579  -10624.99804    128.200027
   10238           0     -1924.500244   -515.668579  -10875.00195    127.328880
   10239           0     -1924.500244   -515.668579  -11125.00195    126.869232
   10240           0     -1924.500244   -515.668579  -11375.00000    127.467033
   10241           0     -1924.500244   -515.668579  -11625.00000    128.807388
   10242           0     -1924.500244   -515.668579  -11875.00000    132.030579
   10243           0     -1924.500244   -515.668579  -12125.00000    136.034302
   10244           0     -1924.500244   -515.668579  -12375.00000    142.674896
   10245           0     -1924.500244   -515.668579  -12625.00000    150.151688
   10246           0     -1924.500244   -515.668579  -12874.99804    156.998169
   10247           0     -1924.500244   -515.668579  -13124.99609    177.843750
   10248           0     -1924.500244   -515.668579  -13374.99804    165.006302
   10249           0     -1894.423340   -627.916504   -124.999992    104.402977
   10250           0     -1894.423340   -627.916504   -375.000000    104.272881
   10251           0     -1894.423340   -627.916504   -625.000000     87.506912
   10252           0     -1894.423340   -627.916504   -874.999939     78.021072
   10253           0     -1894.423340   -627.916504  -1125.000000     65.404091
   10254           0     -1894.423340   -627.916504  -1375.000122     55.702415
   10255           0     -1894.423340   -627.916504  -1625.000000     47.240086
   10256           0     -1894.423340   -627.916504  -1874.999756     43.308861
   10257           0     -1894.423340   -627.916504  -2125.000000     43.540184
   10258           0     -1894.423340   -627.916504  -2375.000000     48.003933
   10259           0     -1894.423340   -627.916504  -2625.000000     54.778717
   10260           0     -1894.423340   -627.916504  -2874.999756     62.722141
   10261           0     -1894.423340   -627.916504  -3125.000000     70.927277
   10262           0     -1894.423340   -627.916504  -3375.000244     78.947601
   10263           0     -1894.423340   -627.916504  -3625.000000     86.549065
   10264           0     -1894.423340   -627.916504  -3875.000000     93.587288
   10265           0     -1894.423340   -627.916504  -4125.000000    100.029976
   10266           0     -1894.423340   -627.916504  -4375.000000    105.836792
   10267           0     -1894.423340   -627.916504  -4625.000000    111.033203
   10268           0     -1894.423340   -627.916504  -4875.000000    115.617538
   10269           0     -1894.423340   -627.916504  -5125.000000    119.629128
   10270           0     -1894.423340   -627.916504  -5375.000000    123.080505
   10271           0     -1894.423340   -627.916504  -5625.000000    126.008629
   10272           0     -1894.423340   -627.916504  -5875.000488    128.429886
   10273           0     -1894.423340   -627.916504  -6125.000488    130.375381
   10274           0     -1894.423340   -627.916504  -6375.000000    131.858078
   10275           0     -1894.423340   -627.916504  -6625.000000    132.903091
   10276           0     -1894.423340   -627.916504  -6875.000000    133.518494
   10277           0     -1894.423340   -627.916504  -7124.999512    133.725235
   10278           0     -1894.423340   -627.916504  -7374.999023    133.524567
   10279           0     -1894.423340   -627.916504  -7625.000000    132.939026
   10280           0     -1894.423340   -627.916504  -7875.000000    131.964127
   10281           0     -1894.423340   -627.916504  -8125.000000    130.631287
   10282           0     -1894.423340   -627.916504  -8375.000000    128.933426
   10283           0     -1894.423340   -627.916504  -8625.000000    126.925224
   10284           0     -1894.423340   -627.916504  -8875.000000    124.602890
   10285           0     -1894.423340   -627.916504  -9125.000000    122.069778
   10286           0     -1894.423340   -627.916504  -9375.000000    119.333488
   10287           0     -1894.423340   -627.916504  -9625.000000    116.593132
   10288           0     -1894.423340   -627.916504  -9875.000000    113.871445
   10289           0     -1894.423340   -627.916565  -10124.99902    111.541618
   10290           0     -1894.423340   -627.916565  -10374.99902    109.616165
   10291           0     -1894.423340   -627.916565  -10625.00000    108.745857
   10292           0     -1894.423340   -627.916565  -10875.00000    108.797066
   10293           0     -1894.423340   -627.916565  -11125.00000    110.778130
   10294           0     -1894.423340   -627.916565  -11375.00000    114.039581
   10295           0     -1894.423340   -627.916565  -11625.00000    119.990746
   10296           0     -1894.423340   -627.916565  -11875.00000    126.900253
   10297           0     -1894.423340   -627.916565  -12125.00000    136.866699
   10298           0     -1894.423340   -627.916565  -12374.99902    146.428787
   10299           0     -1894.423340   -627.916565  -12625.00000    159.518372
   10300           0     -1894.423340   -627.916565  -12874.99902    170.332031
   10301           0     -1894.423340   -627.916565  -13124.99902    185.517822
   10302           0     -1894.423340   -627.916565  -13374.99902    195.274948
   10303           0     -1854.829224   -736.700439   -124.999985    109.654625
   10304           0     -1854.829224   -736.700439   -375.000000    110.017471
   10305           0     -1854.829224   -736.700439   -624.999939     93.759613
   10306           0     -1854.829224   -736.700439   -875.000000     84.348137
   10307           0     -1854.829224   -736.700439  -1125.000000     71.680481
   10308           0     -1854.829224   -736.700439  -1375.000122     61.299690
   10309           0     -1854.829224   -736.700439  -1625.000000     50.346516
   10310           0     -1854.829224   -736.700439  -1874.999756     42.297905
   10311           0     -1854.829224   -736.700439  -2125.000000     36.665291
   10312           0     -1854.829224   -736.700439  -2375.000244     35.869926
   10313           0     -1854.829224   -736.700439  -2624.999756     38.886101
   10314           0     -1854.829224   -736.700439  -2874.999512     44.861031
   10315           0     -1854.829224   -736.700439  -3124.999756     52.085926
   10316           0     -1854.829224   -736.700439  -3375.000244     59.806885
   10317           0     -1854.829224   -736.700439  -3625.000244     67.437492
   10318           0     -1854.829224   -736.700439  -3875.000244     74.749603
   10319           0     -1854.829224   -736.700439  -4125.000000     81.571793
   10320           0     -1854.829224   -736.700439  -4375.000000     87.841194
   10321           0     -1854.829224   -736.700439  -4625.000000     93.508224
   10322           0     -1854.829224   -736.700439  -4875.000000     98.564568
   10323           0     -1854.829224   -736.700439  -5124.999512    103.000404
   10324           0     -1854.829224   -736.700439  -5374.999512    106.827972
   10325           0     -1854.829224   -736.700439  -5625.000000    110.051041
   10326           0     -1854.829224   -736.700439  -5875.000488    112.689148
   10327           0     -1854.829224   -736.700439  -6125.000977    114.748840
   10328           0     -1854.829224   -736.700439  -6375.000488    116.252708
   10329           0     -1854.829224   -736.700439  -6625.000000    117.206421
   10330           0     -1854.829224   -736.700439  -6875.000488    117.635025
   10331           0     -1854.829224   -736.700439  -7124.999512    117.542641
   10332           0     -1854.829224   -736.700439  -7374.999023    116.959526
   10333           0     -1854.829224   -736.700439  -7625.000000    115.889870
   10334           0     -1854.829224   -736.700439  -7875.000000    114.376907
   10335           0     -1854.829224   -736.700439  -8124.999023    112.429985
   10336           0     -1854.829224   -736.700439  -8374.999023    110.118477
   10337           0     -1854.829224   -736.700439  -8625.000000    107.467285
   10338           0     -1854.829224   -736.700439  -8875.000977    104.596375
   10339           0     -1854.829224   -736.700439  -9125.000000    101.565018
   10340           0     -1854.829224   -736.700439  -9374.999023     98.578850
   10341           0     -1854.829224   -736.700439  -9625.000000     95.759911
   10342           0     -1854.829224   -736.700439  -9875.000000     93.442680
   10343           0     -1854.829224   -736.700439  -10125.00000     91.829575
   10344           0     -1854.829224   -736.700439  -10375.00000     91.374382
   10345           0     -1854.829224   -736.700439  -10624.99902     92.310799
   10346           0     -1854.829224   -736.700439  -10875.00097     95.041527
   10347           0     -1854.829224   -736.700439  -11125.00097     99.694664
   10348           0     -1854.829224   -736.700439  -11375.00000    106.305367
   10349           0     -1854.829224   -736.700439  -11625.00000    114.917831
   10350           0     -1854.829224   -736.700439  -11875.00000    124.927742
   10351           0     -1854.829224   -736.700439  -12125.00000    136.667603
   10352           0     -1854.829224   -736.700439  -12374.99902    148.720642
   10353           0     -1854.829224   -736.700439  -12625.00000    162.421707
   10354           0     -1854.829224   -736.700439  -12874.99902    173.365234
   10355           0     -1854.829224   -736.700439  -13124.99804    197.590622
   10356           0     -1854.829224   -736.700439  -13374.99902    183.499588
   10357           0     -1805.717773   -842.020264   -124.999985     92.934685
   10358           0     -1805.717773   -842.020264   -374.999969    105.318588
   10359           0     -1805.717773   -842.020264   -624.999939     87.651894
   10360           0     -1805.717773   -842.020264   -874.999878     79.578827
   10361           0     -1805.717773   -842.020264  -1124.999878     71.135635
   10362           0     -1805.717773   -842.020264  -1375.000244     61.795746
   10363           0     -1805.717773   -842.020264  -1625.000000     53.763607
   10364           0     -1805.717773   -842.020264  -1874.999512     45.835125
   10365           0     -1805.717773   -842.020264  -2125.000244     39.609493
   10366           0     -1805.717773   -842.020264  -2375.000244     35.009163
   10367           0     -1805.717773   -842.020264  -2624.999756     33.169422
   10368           0     -1805.717773   -842.020264  -2874.999512     33.954041
   10369           0     -1805.717773   -842.020264  -3124.999512     37.042477
   10370           0     -1805.717773   -842.020264  -3375.000488     41.562016
   10371           0     -1805.717773   -842.020264  -3625.000488     46.812660
   10372           0     -1805.717773   -842.020264  -3875.000244     52.323845
   10373           0     -1805.717773   -842.020264  -4125.000488     57.761974
   10374           0     -1805.717773   -842.020264  -4375.000488     62.966541
   10375           0     -1805.717773   -842.020264  -4625.000488     67.794540
   10376           0     -1805.717773   -842.020264  -4874.999512     72.195045
   10377           0     -1805.717773   -842.020264  -5124.999512     76.105438
   10378           0     -1805.717773   -842.020264  -5374.999023     79.512436
   10379           0     -1805.717773   -842.020264  -5625.000000     82.391296
   10380           0     -1805.717773   -842.020264  -5875.000977     84.743011
   10381           0     -1805.717773   -842.020264  -6125.000977     86.564445
   10382           0     -1805.717773   -842.020264  -6375.000000     87.862640
   10383           0     -1805.717773   -842.020264  -6625.000000     88.649704
   10384           0     -1805.717773   -842.020264  -6875.000977     88.937500
   10385           0     -1805.717773   -842.020264  -7124.999023     88.753128
   10386           0     -1805.717773   -842.020264  -7374.998535     88.116058
   10387           0     -1805.717773   -842.020264  -7625.000000     87.073334
   10388           0     -1805.717773   -842.020264  -7875.000000     85.660164
   10389           0     -1805.717773   -842.020264  -8124.999023     83.953911
   10390           0     -1805.717773   -842.020264  -8374.999023     82.020645
   10391           0     -1805.717773   -842.020264  -8625.000000     79.985115
   10392           0     -1805.717773   -842.020264  -8875.000977     77.967911
   10393           0     -1805.717773   -842.020264  -9125.000000     76.157936
   10394           0     -1805.717773   -842.020264  -9374.998047     74.756981
   10395           0     -1805.717773   -842.020264  -9625.000000     74.005386
   10396           0     -1805.717773   -842.020264  -9875.000000     74.182640
   10397           0     -1805.717773   -842.020264  -10125.00000     75.473137
   10398           0     -1805.717773   -842.020264  -10375.00000     78.177711
   10399           0     -1805.717773   -842.020264  -10624.99804     82.215836
   10400           0     -1805.717773   -842.020264  -10875.00195     87.904930
   10401           0     -1805.717773   -842.020264  -11125.00195     94.719330
   10402           0     -1805.717773   -842.020264  -11375.00000    103.201157
   10403           0     -1805.717773   -842.020264  -11625.00000    112.228523
   10404           0     -1805.717773   -842.020264  -11875.00000    122.965981
   10405           0     -1805.717773   -842.020264  -12125.00000    133.304779
   10406           0     -1805.717773   -842.020264  -12375.00000    145.844330
   10407           0     -1805.717773   -842.020264  -12625.00000    156.714050
   10408           0     -1805.717773   -842.020264  -12874.99804    167.787613
   10409           0     -1805.717773   -842.020264  -13124.99609    192.342682
   10410           0     -1805.717773   -842.020264  -13374.99804    173.452072
   10411           0     -1756.606201   -947.340210   -124.999992     87.837776
   10412           0     -1756.606201   -947.340210   -375.000000     95.134277
   10413           0     -1756.606201   -947.340210   -625.000000     83.664619
   10414           0     -1756.606201   -947.340210   -874.999939     77.543503
   10415           0     -1756.606201   -947.340210  -1125.000000     71.112106
   10416           0     -1756.606201   -947.340210  -1375.000122     64.660133
   10417           0     -1756.606201   -947.340210  -1625.000000     58.461044
   10418           0     -1756.606201   -947.340210  -1874.999756     52.398384
   10419           0     -1756.606201   -947.340210  -2125.000000     46.674480
   10420           0     -1756.606201   -947.340210  -2375.000000     41.460571
   10421           0     -1756.606201   -947.340210  -2625.000000     37.071609
   10422           0     -1756.606201   -947.340088  -2874.999756     33.789165
   10423           0     -1756.606201   -947.340088  -3125.000000     31.963812
   10424           0     -1756.606201   -947.340088  -3375.000244     31.649683
   10425           0     -1756.606201   -947.340088  -3625.000000     32.796722
   10426           0     -1756.606201   -947.340088  -3875.000000     34.986954
   10427           0     -1756.606201   -947.340088  -4125.000000     37.900761
   10428           0     -1756.606201   -947.340088  -4375.000000     41.122395
   10429           0     -1756.606201   -947.340088  -4625.000000     44.446404
   10430           0     -1756.606445   -947.340088  -4875.000000     47.638451
   10431           0     -1756.606445   -947.340088  -5125.000000     50.608421
   10432           0     -1756.606445   -947.340088  -5375.000000     53.238453
   10433           0     -1756.606445   -947.340088  -5625.000000     55.494747
   10434           0     -1756.606445   -947.340088  -5875.000488     57.322212
   10435           0     -1756.606445   -947.340088  -6125.000488     58.714832
   10436           0     -1756.606445   -947.340088  -6375.000000     59.656815
   10437           0     -1756.606445   -947.340088  -6625.000000     60.161343
   10438           0     -1756.606445   -947.340088  -6875.000000     60.243553
   10439           0     -1756.606445   -947.340088  -7124.999512     59.938210
   10440           0     -1756.606445   -947.340088  -7374.999023     59.294857
   10441           0     -1756.606445   -947.340088  -7625.000000     58.381451
   10442           0     -1756.606445   -947.340088  -7875.000000     57.292088
   10443           0     -1756.606445   -947.340088  -8125.000000     56.150002
   10444           0     -1756.606445   -947.340088  -8375.000000     55.106770
   10445           0     -1756.606445   -947.340088  -8625.000000     54.362339
   10446           0     -1756.606445   -947.340088  -8875.000000     54.113720
   10447           0     -1756.606445   -947.340088  -9125.000000     54.623978
   10448           0     -1756.606445   -947.340088  -9375.000000     56.041672
   10449           0     -1756.606445   -947.340088  -9625.000000     58.608540
   10450           0     -1756.606445   -947.340088  -9875.000000     62.269447
   10451           0     -1756.606445   -947.340088  -10124.99902     67.197517
   10452           0     -1756.606445   -947.340088  -10374.99902     73.068924
   10453           0     -1756.606445   -947.340088  -10625.00000     80.092628
   10454           0     -1756.606445   -947.340088  -10875.00000     87.698296
   10455           0     -1756.606445   -947.340088  -11125.00000     96.295959
   10456           0     -1756.606445   -947.340088  -11375.00000    105.045494
   10457           0     -1756.606445   -947.340088  -11625.00000    114.722824
   10458           0     -1756.606445   -947.340088  -11875.00000    124.103340
   10459           0     -1756.606445   -947.340088  -12125.00000    134.567719
   10460           0     -1756.606445   -947.340088  -12374.99902    144.224030
   10461           0     -1756.606445   -947.340088  -12625.00000    155.366241
   10462           0     -1756.606445   -947.340088  -12874.99902    165.426331
   10463           0     -1756.606445   -947.340088  -13124.99902    177.735748
   10464           0     -1756.606445   -947.340088  -13374.99902    180.932419
   10465           0     -1698.723511  -1047.595947   -124.999985     80.834351
   10466           0     -1698.723511  -1047.595947   -375.000000     80.386032
   10467           0     -1698.723511  -1047.595947   -624.999939     74.297073
   10468           0     -1698.723511  -1047.595947   -875.000000     70.880058
   10469           0     -1698.723511  -1047.595947  -1125.000000     66.004723
   10470           0     -1698.723511  -1047.595947  -1375.000122     62.509964
   10471           0     -1698.723511  -1047.595947  -1625.000000     58.402271
   10472           0     -1698.723511  -1047.595947  -1874.999756     54.946480
   10473           0     -1698.723511  -1047.595947  -2125.000000     51.324108
   10474           0     -1698.723511  -1047.595947  -2375.000244     48.153236
   10475           0     -1698.723511  -1047.595947  -2624.999756     45.123188
   10476           0     -1698.723511  -1047.595947  -2874.999512     42.597916
   10477           0     -1698.723511  -1047.595947  -3124.999756     40.470306
   10478           0     -1698.723511  -1047.595947  -3375.000244     38.956161
   10479           0     -1698.723511  -1047.595947  -3625.000244     37.977646
   10480           0     -1698.723511  -1047.595947  -3875.000244     37.606861
   10481           0     -1698.723511  -1047.595947  -4125.000000     37.710339
   10482           0     -1698.723511  -1047.595947  -4375.000000     38.243805
   10483           0     -1698.723511  -1047.595947  -4625.000000     39.040787
   10484           0     -1698.723511  -1047.595947  -4875.000000     40.016998
   10485           0     -1698.723511  -1047.595947  -5124.999512     41.030174
   10486           0     -1698.723511  -1047.595947  -5374.999512     42.011623
   10487           0     -1698.723511  -1047.595947  -5625.000000     42.866966
   10488           0     -1698.723511  -1047.595947  -5875.000488     43.559822
   10489           0     -1698.723511  -1047.595947  -6125.000977     44.042480
   10490           0     -1698.723511  -1047.595947  -6375.000488     44.312675
   10491           0     -1698.723511  -1047.595947  -6625.000000     44.364674
   10492           0     -1698.723511  -1047.595947  -6875.000488     44.233383
   10493           0     -1698.723511  -1047.595947  -7124.999512     43.956547
   10494           0     -1698.723511  -1047.595947  -7374.999023     43.614738
   10495           0     -1698.723511  -1047.595947  -7625.000000     43.294106
   10496           0     -1698.723511  -1047.595947  -7875.000000     43.130707
   10497           0     -1698.723511  -1047.595947  -8124.999023     43.254406
   10498           0     -1698.723511  -1047.595947  -8374.999023     43.844036
   10499           0     -1698.723511  -1047.595947  -8625.000000     45.029324
   10500           0     -1698.723511  -1047.595947  -8875.000977     46.972385
   10501           0     -1698.723511  -1047.595947  -9125.000000     49.721519
   10502           0     -1698.723511  -1047.595947  -9374.999023     53.355663
   10503           0     -1698.723511  -1047.595947  -9625.000000     57.807774
   10504           0     -1698.723511  -1047.595947  -9875.000000     63.076405
   10505           0     -1698.723511  -1047.595947  -10125.00000     69.027222
   10506           0     -1698.723511  -1047.595947  -10375.00000     75.612633
   10507           0     -1698.723511  -1047.595947  -10624.99902     82.704712
   10508           0     -1698.723511  -1047.595947  -10875.00097     90.202400
   10509           0     -1698.723511  -1047.595947  -11125.00097     98.072052
   10510           0     -1698.723511  -1047.595947  -11375.00000    106.083580
   10511           0     -1698.723511  -1047.595947  -11625.00000    114.456894
   10512           0     -1698.723511  -1047.595947  -11875.00000    122.648483
   10513           0     -1698.723511  -1047.595947  -12125.00000    131.434845
   10514           0     -1698.723511  -1047.595947  -12374.99902    139.628510
   10515           0     -1698.723511  -1047.595947  -12625.00000    149.115509
   10516           0     -1698.723511  -1047.595947  -12874.99902    155.981064
   10517           0     -1698.723511  -1047.595947  -13124.99804    172.286026
   10518           0     -1698.723511  -1047.595947  -13374.99902    160.303223
   10519           0     -1632.069580  -1142.787720   -124.999985     60.047516
   10520           0     -1632.069580  -1142.787720   -374.999969     67.411575
   10521           0     -1632.069580  -1142.787720   -624.999939     60.139072
   10522           0     -1632.069580  -1142.787720   -874.999878     59.072304
   10523           0     -1632.069580  -1142.787720  -1124.999878     56.881580
   10524           0     -1632.069580  -1142.787720  -1375.000244     54.966198
   10525           0     -1632.069580  -1142.787720  -1625.000000     53.278320
   10526           0     -1632.069580  -1142.787720  -1874.999512     51.693424
   10527           0     -1632.069580  -1142.787720  -2125.000244     50.282486
   10528           0     -1632.069580  -1142.787720  -2375.000244     48.946442
   10529           0     -1632.069580  -1142.787720  -2624.999756     47.768986
   10530           0     -1632.069580  -1142.787720  -2874.999512     46.667961
   10531           0     -1632.069580  -1142.787720  -3124.999512     45.727707
   10532           0     -1632.069580  -1142.787720  -3375.000488     44.884899
   10533           0     -1632.069580  -1142.787720  -3625.000488     44.203308
   10534           0     -1632.069580  -1142.787720  -3875.000244     43.628300
   10535           0     -1632.069580  -1142.787720  -4125.000488     43.195026
   10536           0     -1632.069580  -1142.787720  -4375.000488     42.851166
   10537           0     -1632.069580  -1142.787720  -4625.000488     42.607399
   10538           0     -1632.069580  -1142.787720  -4874.999512     42.415009
   10539           0     -1632.069580  -1142.787720  -5124.999512     42.271976
   10540           0     -1632.069580  -1142.787720  -5374.999023     42.139378
   10541           0     -1632.069580  -1142.787720  -5625.000000     42.016621
   10542           0     -1632.069580  -1142.787720  -5875.000977     41.881439
   10543           0     -1632.069580  -1142.787720  -6125.000977     41.745777
   10544           0     -1632.069580  -1142.787720  -6375.000000     41.610924
   10545           0     -1632.069580  -1142.787720  -6625.000000     41.510502
   10546           0     -1632.069580  -1142.787842  -6875.000977     41.472454
   10547           0     -1632.069580  -1142.787842  -7124.999023     41.556965
   10548           0     -1632.069580  -1142.787842  -7374.998535     41.817398
   10549           0     -1632.069580  -1142.787842  -7625.000000     42.335705
   10550           0     -1632.069580  -1142.787842  -7875.000000     43.178040
   10551           0     -1632.069580  -1142.787842  -8124.999023     44.427914
   10552           0     -1632.069580  -1142.787842  -8374.999023     46.139622
   10553           0     -1632.069580  -1142.787842  -8625.000000     48.367638
   10554           0     -1632.069580  -1142.787842  -8875.000977     51.133251
   10555           0     -1632.069580  -1142.787842  -9125.000000     54.441940
   10556           0     -1632.069580  -1142.787842  -9374.998047     58.285282
   10557           0     -1632.069580  -1142.787842  -9625.000000     62.616802
   10558           0     -1632.069580  -1142.787842  -9875.000000     67.429207
   10559           0     -1632.069580  -1142.787842  -10125.00000     72.618660
   10560           0     -1632.069580  -1142.787842  -10375.00000     78.225029
   10561           0     -1632.069580  -1142.787842  -10624.99804     84.060974
   10562           0     -1632.069580  -1142.787842  -10875.00195     90.278488
   10563           0     -1632.069580  -1142.787842  -11125.00195     96.540428
   10564           0     -1632.069580  -1142.787842  -11375.00000    103.218849
   10565           0     -1632.069580  -1142.787842  -11625.00000    109.697472
   10566           0     -1632.069580  -1142.787842  -11875.00000    116.769913
   10567           0     -1632.069580  -1142.787842  -12125.00000    123.206795
   10568           0     -1632.069580  -1142.787842  -12375.00000    130.911514
   10569           0     -1632.069580  -1142.787842  -12625.00000    137.103378
   10570           0     -1632.069580  -1142.787842  -12874.99804    143.276077
   10571           0     -1632.069580  -1142.787842  -13124.99609    160.579025
   10572           0     -1632.069580  -1142.787720  -13374.99804    142.668396
   10573           0     -1565.415527  -1237.979370   -124.999992     44.657459
   10574           0     -1565.415527  -1237.979370   -375.000000     52.843582
   10575           0     -1565.415527  -1237.979370   -625.000000     49.752548
   10576           0     -1565.415527  -1237.979370   -874.999939     49.352554
   10577           0     -1565.415527  -1237.979370  -1125.000000     49.751534
   10578           0     -1565.415527  -1237.979370  -1375.000122     49.530685
   10579           0     -1565.415527  -1237.979370  -1625.000000     49.870667
   10580           0     -1565.415527  -1237.979370  -1874.999756     50.162617
   10581           0     -1565.415527  -1237.979370  -2125.000000     50.635841
   10582           0     -1565.415527  -1237.979370  -2375.000000     51.154366
   10583           0     -1565.415527  -1237.979370  -2625.000000     51.714783
   10584           0     -1565.415527  -1237.979370  -2874.999756     52.300564
   10585           0     -1565.415527  -1237.979370  -3125.000000     52.857124
   10586           0     -1565.415527  -1237.979370  -3375.000244     53.402367
   10587           0     -1565.415527  -1237.979370  -3625.000000     53.883041
   10588           0     -1565.415527  -1237.979370  -3875.000000     54.323902
   10589           0     -1565.415527  -1237.979370  -4125.000000     54.687794
   10590           0     -1565.415527  -1237.979370  -4375.000000     54.999126
   10591           0     -1565.415527  -1237.979370  -4625.000000     55.237103
   10592           0     -1565.415527  -1237.979370  -4875.000000     55.425320
   10593           0     -1565.415527  -1237.979370  -5125.000000     55.556023
   10594           0     -1565.415527  -1237.979370  -5375.000000     55.653755
   10595           0     -1565.415527  -1237.979370  -5625.000000     55.720764
   10596           0     -1565.415527  -1237.979370  -5875.000488     55.785309
   10597           0     -1565.415527  -1237.979370  -6125.000488     55.859737
   10598           0     -1565.415527  -1237.979370  -6375.000000     55.976292
   10599           0     -1565.415527  -1237.979370  -6625.000000     56.156624
   10600           0     -1565.415527  -1237.979370  -6875.000000     56.438911
   10601           0     -1565.415527  -1237.979492  -7124.999512     56.852230
   10602           0     -1565.415527  -1237.979492  -7374.999023     57.436005
   10603           0     -1565.415527  -1237.979492  -7625.000000     58.223595
   10604           0     -1565.415527  -1237.979492  -7875.000000     59.249332
   10605           0     -1565.415527  -1237.979492  -8125.000000     60.544601
   10606           0     -1565.415527  -1237.979492  -8375.000000     62.128345
   10607           0     -1565.415527  -1237.979492  -8625.000000     64.026283
   10608           0     -1565.415527  -1237.979492  -8875.000000     66.233841
   10609           0     -1565.415527  -1237.979492  -9125.000000     68.770447
   10610           0     -1565.415527  -1237.979492  -9375.000000     71.601036
   10611           0     -1565.415527  -1237.979492  -9625.000000     74.751266
   10612           0     -1565.415527  -1237.979492  -9875.000000     78.149155
   10613           0     -1565.415527  -1237.979492  -10124.99902     81.843925
   10614           0     -1565.415527  -1237.979492  -10374.99902     85.717674
   10615           0     -1565.415527  -1237.979492  -10625.00000     89.873817
   10616           0     -1565.415527  -1237.979492  -10875.00000     94.125816
   10617           0     -1565.415527  -1237.979492  -11125.00000     98.666786
   10618           0     -1565.415527  -1237.979492  -11375.00000    103.215004
   10619           0     -1565.415527  -1237.979492  -11625.00000    108.086189
   10620           0     -1565.415527  -1237.979492  -11875.00000    112.864502
   10621           0     -1565.415527  -1237.979492  -12125.00000    118.029396
   10622           0     -1565.415527  -1237.979492  -12374.99902    123.015137
   10623           0     -1565.415527  -1237.979492  -12625.00000    128.217285
   10624           0     -1565.415527  -1237.979492  -12874.99902    133.892624
   10625           0     -1565.415527  -1237.979492  -13124.99902    139.915939
   10626           0     -1565.415527  -1237.979370  -13374.99902    138.967575
   10627           0     -1491.003052  -1326.660889   -124.999985     38.658287
   10628           0     -1491.003052  -1326.660889   -375.000000     39.932732
   10629           0     -1491.003052  -1326.660889   -624.999939     41.018417
   10630           0     -1491.003052  -1326.660889   -875.000000     41.506733
   10631           0     -1491.003052  -1326.660889  -1125.000000     42.633385
   10632           0     -1491.003052  -1326.660889  -1375.000122     43.525524
   10633           0     -1491.003052  -1326.660889  -1625.000000     44.774567
   10634           0     -1491.003052  -1326.660889  -1874.999756     45.987064
   10635           0     -1491.003052  -1326.660889  -2125.000000     47.448307
   10636           0     -1491.003052  -1326.660889  -2375.000244     48.921894
   10637           0     -1491.003052  -1326.660889  -2624.999756     50.537693
   10638           0     -1491.003052  -1326.660889  -2874.999512     52.142715
   10639           0     -1491.003052  -1326.660889  -3124.999756     53.786045
   10640           0     -1491.003052  -1326.660889  -3375.000244     55.366707
   10641           0     -1491.003052  -1326.660889  -3625.000244     56.901997
   10642           0     -1491.003052  -1326.660889  -3875.000244     58.329605
   10643           0     -1491.003052  -1326.660889  -4125.000000     59.660751
   10644           0     -1491.003052  -1326.660889  -4375.000000     60.862755
   10645           0     -1491.003052  -1326.660889  -4625.000000     61.950050
   10646           0     -1491.003052  -1326.660889  -4875.000000     62.910717
   10647           0     -1491.003052  -1326.660889  -5124.999512     63.764351
   10648           0     -1491.003052  -1326.660889  -5374.999512     64.512810
   10649           0     -1491.003052  -1326.660889  -5625.000000     65.179886
   10650           0     -1491.003052  -1326.660889  -5875.000488     65.776428
   10651           0     -1491.003052  -1326.660889  -6125.000977     66.329109
   10652           0     -1491.003052  -1326.660889  -6375.000488     66.854919
   10653           0     -1491.003052  -1326.660889  -6625.000000     67.382248
   10654           0     -1491.003052  -1326.660889  -6875.000488     67.931633
   10655           0     -1491.003052  -1326.660889  -7124.999512     68.530777
   10656           0     -1491.003052  -1326.660889  -7374.999023     69.203293
   10657           0     -1491.003052  -1326.660889  -7625.000000     69.972755
   10658           0     -1491.003052  -1326.660889  -7875.000000     70.863319
   10659           0     -1491.003052  -1326.660889  -8124.999023     71.891914
   10660           0     -1491.003052  -1326.660889  -8374.999023     73.081001
   10661           0     -1491.003052  -1326.660889  -8625.000000     74.437927
   10662           0     -1491.003052  -1326.660889  -8875.000977     75.982002
   10663           0     -1491.003052  -1326.660889  -9125.000000     77.708725
   10664           0     -1491.003052  -1326.660889  -9374.999023     79.635422
   10665           0     -1491.003052  -1326.660889  -9625.000000     81.744644
   10666           0     -1491.003052  -1326.660889  -9875.000000     84.053154
   10667           0     -1491.003052  -1326.660889  -10125.00000     86.533638
   10668           0     -1491.003052  -1326.660889  -10375.00000     89.200264
   10669           0     -1491.003052  -1326.660889  -10624.99902     92.027786
   10670           0     -1491.003052  -1326.660889  -10875.00097     95.013771
   10671           0     -1491.003052  -1326.660889  -11125.00097     98.164459
   10672           0     -1491.003052  -1326.660889  -11375.00000    101.420799
   10673           0     -1491.003052  -1326.660889  -11625.00000    104.888733
   10674           0     -1491.003052  -1326.660889  -11875.00000    108.349236
   10675           0     -1491.003052  -1326.660889  -12125.00000    112.147545
   10676           0     -1491.003052  -1326.660889  -12374.99902    115.732979
   10677           0     -1491.003052  -1326.660889  -12625.00000    119.918243
   10678           0     -1491.003052  -1326.661011  -12874.99902    122.860992
   10679           0     -1491.002930  -1326.661011  -13124.99804    131.516373
   10680           0     -1491.002930  -1326.661011  -13374.99902    120.887245
   10681           0     -1408.831787  -1408.832275   -124.999985     33.790638
   10682           0     -1408.831787  -1408.832275   -374.999969     34.822853
   10683           0     -1408.831787  -1408.832275   -624.999939     34.454025
   10684           0     -1408.831787  -1408.832275   -874.999878     36.061306
   10685           0     -1408.831787  -1408.832275  -1124.999878     36.568966
   10686           0     -1408.831787  -1408.832275  -1375.000244     37.762615
   10687           0     -1408.831787  -1408.832275  -1625.000000     38.808594
   10688           0     -1408.831787  -1408.832275  -1874.999512     40.157833
   10689           0     -1408.831787  -1408.832275  -2125.000244     41.572227
   10690           0     -1408.831787  -1408.832275  -2375.000244     43.192074
   10691           0     -1408.831787  -1408.832275  -2624.999756     44.911621
   10692           0     -1408.831787  -1408.832275  -2874.999512     46.750950
   10693           0     -1408.831787  -1408.832275  -3124.999512     48.648949
   10694           0     -1408.831787  -1408.832275  -3375.000488     50.581898
   10695           0     -1408.831787  -1408.832275  -3625.000488     52.508621
   10696           0     -1408.831787  -1408.832275  -3875.000244     54.399628
   10697           0     -1408.831787  -1408.832275  -4125.000488     56.228207
   10698           0     -1408.831787  -1408.832275  -4375.000488     57.973522
   10699           0     -1408.831787  -1408.832275  -4625.000488     59.621300
   10700           0     -1408.831787  -1408.832275  -4874.999512     61.162800
   10701           0     -1408.831787  -1408.832275  -5124.999512     62.593922
   10702           0     -1408.831787  -1408.832275  -5374.999023     63.916218
   10703           0     -1408.831787  -1408.832275  -5625.000000     65.134628
   10704           0     -1408.831787  -1408.832275  -5875.000977     66.257629
   10705           0     -1408.831787  -1408.832031  -6125.000977     67.296349
   10706           0     -1408.831787  -1408.832031  -6375.000000     68.264854
   10707           0     -1408.831787  -1408.832031  -6625.000000     69.178474
   10708           0     -1408.831787  -1408.832031  -6875.000977     70.054131
   10709           0     -1408.831787  -1408.832031  -7124.999023     70.910271
   10710           0     -1408.831787  -1408.832031  -7374.998535     71.764427
   10711           0     -1408.831787  -1408.832031  -7625.000000     72.637207
   10712           0     -1408.831787  -1408.832031  -7875.000000     73.545128
   10713           0     -1408.831787  -1408.832031  -8124.999023     74.509201
   10714           0     -1408.831787  -1408.832031  -8374.999023     75.544289
   10715           0     -1408.831787  -1408.832031  -8625.000000     76.669106
   10716           0     -1408.831787  -1408.832031  -8875.000977     77.896751
   10717           0     -1408.831787  -1408.832031  -9125.000000     79.241837
   10718           0     -1408.831787  -1408.832031  -9374.998047     80.714706
   10719           0     -1408.831787  -1408.832031  -9625.000000     82.321701
   10720           0     -1408.831787  -1408.832031  -9875.000000     84.075653
   10721           0     -1408.831787  -1408.832031  -10125.00000     85.964241
   10722           0     -1408.831787  -1408.832031  -10375.00000     88.013298
   10723           0     -1408.831787  -1408.832031  -10624.99804     90.176514
   10724           0     -1408.831787  -1408.832031  -10875.00195     92.514961
   10725           0     -1408.831787  -1408.832031  -11125.00195     94.918465
   10726           0     -1408.831787  -1408.832031  -11375.00000     97.528534
   10727           0     -1408.831787  -1408.832031  -11625.00000    100.117775
   10728           0     -1408.831787  -1408.832031  -11875.00000    102.998520
   10729           0     -1408.831787  -1408.832031  -12125.00000    105.642937
   10730           0     -1408.831787  -1408.832031  -12375.00000    108.977303
   10731           0     -1408.831787  -1408.832031  -12625.00000    111.538635
   10732           0     -1408.831787  -1408.832031  -12874.99804    113.698593
   10733           0     -1408.831787  -1408.832153  -13124.99609    124.370026
   10734           0     -1408.831787  -1408.832153  -13374.99804    109.569771
   10735           0     -1326.660645  -1491.003296   -124.999992     33.698399
   10736           0     -1326.660645  -1491.003296   -375.000000     33.443321
   10737           0     -1326.660645  -1491.003296   -625.000000     32.855190
   10738           0     -1326.660645  -1491.003296   -874.999939     33.503887
   10739           0     -1326.660645  -1491.003296  -1125.000000     33.785088
   10740           0     -1326.660645  -1491.003296  -1375.000122     34.687725
   10741           0     -1326.660645  -1491.003296  -1625.000000     35.591915
   10742           0     -1326.660645  -1491.003296  -1874.999756     36.993992
   10743           0     -1326.660645  -1491.003296  -2125.000000     38.529686
   10744           0     -1326.660645  -1491.003296  -2375.000000     40.457993
   10745           0     -1326.660645  -1491.003296  -2625.000000     42.557861
   10746           0     -1326.660645  -1491.003296  -2874.999756     44.938164
   10747           0     -1326.660645  -1491.003296  -3125.000000     47.447304
   10748           0     -1326.660645  -1491.003296  -3375.000244     50.118431
   10749           0     -1326.660645  -1491.003296  -3625.000000     52.839840
   10750           0     -1326.660645  -1491.003296  -3875.000000     55.610256
   10751           0     -1326.660645  -1491.003296  -4125.000000     58.348679
   10752           0     -1326.660645  -1491.003296  -4375.000000     61.042599
   10753           0     -1326.660645  -1491.003296  -4625.000000     63.636795
   10754           0     -1326.660645  -1491.003296  -4875.000000     66.119614
   10755           0     -1326.660645  -1491.003296  -5125.000000     68.456863
   10756           0     -1326.660645  -1491.003296  -5375.000000     70.643219
   10757           0     -1326.660645  -1491.003296  -5625.000000     72.659859
   10758           0     -1326.660645  -1491.003296  -5875.000488     74.509544
   10759           0     -1326.660645  -1491.003296  -6125.000488     76.185471
   10760           0     -1326.660645  -1491.003296  -6375.000000     77.696129
   10761           0     -1326.660645  -1491.003296  -6625.000000     79.043358
   10762           0     -1326.660645  -1491.003296  -6875.000000     80.241791
   10763           0     -1326.660645  -1491.003296  -7124.999512     81.299789
   10764           0     -1326.660645  -1491.003296  -7374.999023     82.234528
   10765           0     -1326.660645  -1491.003296  -7625.000000     83.061172
   10766           0     -1326.660645  -1491.003296  -7875.000000     83.799049
   10767           0     -1326.660645  -1491.003296  -8125.000000     84.468399
   10768           0     -1326.660645  -1491.003296  -8375.000000     85.089211
   10769           0     -1326.660645  -1491.003296  -8625.000000     85.686623
   10770           0     -1326.660645  -1491.003296  -8875.000000     86.280823
   10771           0     -1326.660645  -1491.003296  -9125.000000     86.899025
   10772           0     -1326.660645  -1491.003296  -9375.000000     87.557854
   10773           0     -1326.660645  -1491.003296  -9625.000000     88.288040
   10774           0     -1326.660645  -1491.003296  -9875.000000     89.096733
   10775           0     -1326.660645  -1491.003296  -10124.99902     90.016685
   10776           0     -1326.660645  -1491.003296  -10374.99902     91.037926
   10777           0     -1326.660645  -1491.003296  -10625.00000     92.201340
   10778           0     -1326.660645  -1491.003296  -10875.00000     93.466942
   10779           0     -1326.660645  -1491.003296  -11125.00000     94.891930
   10780           0     -1326.660645  -1491.003296  -11375.00000     96.400719
   10781           0     -1326.660645  -1491.003296  -11625.00000     98.074013
   10782           0     -1326.660645  -1491.003296  -11875.00000     99.797325
   10783           0     -1326.660645  -1491.003296  -12125.00000    101.691216
   10784           0     -1326.660645  -1491.003296  -12374.99902    103.639534
   10785           0     -1326.660645  -1491.003296  -12625.00000    105.516243
   10786           0     -1326.660645  -1491.003296  -12874.99902    108.189491
   10787           0     -1326.660645  -1491.003296  -13124.99902    110.438683
   10788           0     -1326.660645  -1491.003296  -13374.99902    107.882980
   10789           0     -1237.979126  -1565.416016   -124.999985     31.862881
   10790           0     -1237.979126  -1565.416016   -375.000000     35.329323
   10791           0     -1237.979126  -1565.416016   -624.999939     33.031307
   10792           0     -1237.979126  -1565.416016   -875.000000     32.181782
   10793           0     -1237.979126  -1565.416016  -1125.000000     32.025135
   10794           0     -1237.979126  -1565.416016  -1375.000122     31.660919
   10795           0     -1237.979126  -1565.416016  -1625.000000     32.123306
   10796           0     -1237.979126  -1565.416016  -1874.999756     32.686295
   10797           0     -1237.979126  -1565.416016  -2125.000000     33.929085
   10798           0     -1237.979126  -1565.416016  -2375.000244     35.404476
   10799           0     -1237.979126  -1565.416016  -2624.999756     37.424171
   10800           0     -1237.979126  -1565.416016  -2874.999512     39.679417
   10801           0     -1237.979126  -1565.416016  -3124.999756     42.318344
   10802           0     -1237.979126  -1565.416016  -3375.000244     45.119446
   10803           0     -1237.979126  -1565.416016  -3625.000244     48.139618
   10804           0     -1237.979126  -1565.416016  -3875.000244     51.219612
   10805           0     -1237.979126  -1565.416016  -4125.000000     54.372978
   10806           0     -1237.979126  -1565.416016  -4375.000000     57.488323
   10807           0     -1237.979126  -1565.416016  -4625.000000     60.562759
   10808           0     -1237.979126  -1565.416016  -4875.000000     63.521713
   10809           0     -1237.979126  -1565.416016  -5124.999512     66.359322
   10810           0     -1237.979126  -1565.416016  -5374.999512     69.029312
   10811           0     -1237.979126  -1565.416016  -5625.000000     71.528702
   10812           0     -1237.979126  -1565.416016  -5875.000488     73.832207
   10813           0     -1237.979126  -1565.416016  -6125.000977     75.941780
   10814           0     -1237.979126  -1565.416016  -6375.000488     77.847427
   10815           0     -1237.979126  -1565.416016  -6625.000000     79.556412
   10816           0     -1237.979126  -1565.416016  -6875.000488     81.070496
   10817           0     -1237.979126  -1565.416016  -7124.999512     82.401611
   10818           0     -1237.979126  -1565.416016  -7374.999023     83.560295
   10819           0     -1237.979126  -1565.416016  -7625.000000     84.562592
   10820           0     -1237.979126  -1565.416016  -7875.000000     85.426254
   10821           0     -1237.979126  -1565.416016  -8124.999023     86.170403
   10822           0     -1237.979126  -1565.416016  -8374.999023     86.818329
   10823           0     -1237.979126  -1565.416016  -8625.000000     87.390762
   10824           0     -1237.979126  -1565.416016  -8875.000977     87.915726
   10825           0     -1237.979126  -1565.416016  -9125.000000     88.412323
   10826           0     -1237.979126  -1565.416016  -9374.999023     88.911209
   10827           0     -1237.979126  -1565.416016  -9625.000000     89.426857
   10828           0     -1237.979126  -1565.416016  -9875.000000     89.991028
   10829           0     -1237.979126  -1565.416016  -10125.00000     90.608948
   10830           0     -1237.979126  -1565.416016  -10375.00000     91.310608
   10831           0     -1237.979126  -1565.416016  -10624.99902     92.092453
   10832           0     -1237.979126  -1565.416016  -10875.00097     92.976448
   10833           0     -1237.979126  -1565.416016  -11125.00097     93.955406
   10834           0     -1237.979126  -1565.416016  -11375.00000     95.033958
   10835           0     -1237.979126  -1565.416016  -11625.00000     96.218842
   10836           0     -1237.979126  -1565.416016  -11875.00000     97.472275
   10837           0     -1237.979126  -1565.416016  -12125.00000     98.850471
   10838           0     -1237.979126  -1565.416016  -12374.99902    100.288139
   10839           0     -1237.979126  -1565.416016  -12625.00000    101.800964
   10840           0     -1237.979126  -1565.416016  -12874.99902    102.962181
   10841           0     -1237.979126  -1565.416016  -13124.99804    108.111687
   10842           0     -1237.979126  -1565.416016  -13374.99902     97.740700
   10843           0     -1142.787354  -1632.069946   -124.999985     34.763222
   10844           0     -1142.787354  -1632.069946   -374.999969     35.961472
   10845           0     -1142.787354  -1632.069946   -624.999939     33.095860
   10846           0     -1142.787354  -1632.069946   -874.999878     31.509192
   10847           0     -1142.787354  -1632.069946  -1124.999878     30.251200
   10848           0     -1142.787354  -1632.069946  -1375.000244     29.078522
   10849           0     -1142.787354  -1632.069946  -1625.000000     28.482468
   10850           0     -1142.787354  -1632.069946  -1874.999512     28.244659
   10851           0     -1142.787354  -1632.069946  -2125.000244     28.548872
   10852           0     -1142.787354  -1632.069946  -2375.000244     29.366884
   10853           0     -1142.787354  -1632.069946  -2624.999756     30.665272
   10854           0     -1142.787354  -1632.069946  -2874.999512     32.447163
   10855           0     -1142.787354  -1632.069946  -3124.999512     34.587559
   10856           0     -1142.787354  -1632.069946  -3375.000488     37.075607
   10857           0     -1142.787354  -1632.069946  -3625.000488     39.777100
   10858           0     -1142.787354  -1632.069946  -3875.000244     42.672726
   10859           0     -1142.787354  -1632.069946  -4125.000488     45.652611
   10860           0     -1142.787354  -1632.069946  -4375.000488     48.696411
   10861           0     -1142.787354  -1632.069946  -4625.000488     51.723389
   10862           0     -1142.787354  -1632.069946  -4874.999512     54.716396
   10863           0     -1142.787354  -1632.069946  -5124.999512     57.619686
   10864           0     -1142.787354  -1632.069946  -5374.999023     60.421272
   10865           0     -1142.787354  -1632.069946  -5625.000000     63.085484
   10866           0     -1142.787354  -1632.069946  -5875.000977     65.606201
   10867           0     -1142.787354  -1632.069946  -6125.000977     67.963524
   10868           0     -1142.787354  -1632.069946  -6375.000000     70.157501
   10869           0     -1142.787354  -1632.069946  -6625.000000     72.180748
   10870           0     -1142.787354  -1632.069946  -6875.000977     74.039070
   10871           0     -1142.787354  -1632.069946  -7124.999023     75.735023
   10872           0     -1142.787354  -1632.069946  -7374.998535     77.278732
   10873           0     -1142.787354  -1632.069946  -7625.000000     78.681435
   10874           0     -1142.787354  -1632.069946  -7875.000000     79.956108
   10875           0     -1142.787354  -1632.069946  -8124.999023     81.120331
   10876           0     -1142.787354  -1632.069946  -8374.999023     82.188774
   10877           0     -1142.787354  -1632.069946  -8625.000000     83.182663
   10878           0     -1142.787354  -1632.069946  -8875.000977     84.117172
   10879           0     -1142.787354  -1632.069946  -9125.000000     85.014252
   10880           0     -1142.787354  -1632.069946  -9374.998047     85.887695
   10881           0     -1142.787354  -1632.069946  -9625.000000     86.756935
   10882           0     -1142.787354  -1632.069946  -9875.000000     87.635712
   10883           0     -1142.787354  -1632.069946  -10125.00000     88.534317
   10884           0     -1142.787354  -1632.069946  -10375.00000     89.470856
   10885           0     -1142.787354  -1632.069946  -10624.99804     90.439995
   10886           0     -1142.787354  -1632.069946  -10875.00195     91.472443
   10887           0     -1142.787354  -1632.069946  -11125.00195     92.534660
   10888           0     -1142.787354  -1632.069946  -11375.00000     93.687950
   10889           0     -1142.787354  -1632.069946  -11625.00000     94.849014
   10890           0     -1142.787354  -1632.069946  -11875.00000     96.147728
   10891           0     -1142.787354  -1632.069946  -12125.00000     97.346794
   10892           0     -1142.787354  -1632.069946  -12375.00000     98.936836
   10893           0     -1142.787354  -1632.069946  -12625.00000    100.130272
   10894           0     -1142.787354  -1632.069946  -12874.99804    100.557182
   10895           0     -1142.787354  -1632.069946  -13124.99609    108.742340
   10896           0     -1142.787354  -1632.069946  -13374.99804     95.162048
   10897           0     -1047.595581  -1698.723877   -124.999992     39.074806
   10898           0     -1047.595581  -1698.723877   -375.000000     35.473759
   10899           0     -1047.595581  -1698.723877   -625.000000     32.874756
   10900           0     -1047.595581  -1698.723877   -874.999939     31.317442
   10901           0     -1047.595581  -1698.723877  -1125.000000     28.828033
   10902           0     -1047.595581  -1698.723877  -1375.000122     27.679413
   10903           0     -1047.595581  -1698.723877  -1625.000000     26.278622
   10904           0     -1047.595581  -1698.723877  -1874.999756     25.888716
   10905           0     -1047.595581  -1698.723877  -2125.000000     25.762388
   10906           0     -1047.595581  -1698.723877  -2375.000000     26.468725
   10907           0     -1047.595581  -1698.723877  -2625.000000     27.627529
   10908           0     -1047.595581  -1698.723877  -2874.999756     29.407179
   10909           0     -1047.595581  -1698.723877  -3125.000000     31.585260
   10910           0     -1047.595581  -1698.723877  -3375.000244     34.156078
   10911           0     -1047.595581  -1698.723877  -3625.000000     36.986340
   10912           0     -1047.595581  -1698.723877  -3875.000000     40.023468
   10913           0     -1047.595581  -1698.723877  -4125.000000     43.186718
   10914           0     -1047.595581  -1698.723877  -4375.000000     46.420952
   10915           0     -1047.595581  -1698.723877  -4625.000000     49.674068
   10916           0     -1047.595581  -1698.723877  -4875.000000     52.899849
   10917           0     -1047.595581  -1698.723877  -5125.000000     56.062778
   10918           0     -1047.595581  -1698.723877  -5375.000000     59.128166
   10919           0     -1047.595581  -1698.723877  -5625.000000     62.071789
   10920           0     -1047.595581  -1698.723877  -5875.000488     64.871056
   10921           0     -1047.595581  -1698.723877  -6125.000488     67.511169
   10922           0     -1047.595581  -1698.723877  -6375.000000     69.980316
   10923           0     -1047.595581  -1698.723877  -6625.000000     72.272087
   10924           0     -1047.595581  -1698.723877  -6875.000000     74.385323
   10925           0     -1047.595581  -1698.723877  -7124.999512     76.320885
   10926           0     -1047.595581  -1698.723877  -7374.999023     78.085579
   10927           0     -1047.595581  -1698.723877  -7625.000000     79.687302
   10928           0     -1047.595581  -1698.723877  -7875.000000     81.139488
   10929           0     -1047.595581  -1698.723877  -8125.000000     82.454781
   10930           0     -1047.595581  -1698.723877  -8375.000000     83.651291
   10931           0     -1047.595581  -1698.723877  -8625.000000     84.744492
   10932           0     -1047.595581  -1698.723877  -8875.000000     85.755745
   10933           0     -1047.595581  -1698.723877  -9125.000000     86.700249
   10934           0     -1047.595581  -1698.723877  -9375.000000     87.599281
   10935           0     -1047.595581  -1698.723877  -9625.000000     88.467583
   10936           0     -1047.595581  -1698.723877  -9875.000000     89.323219
   10937           0     -1047.595581  -1698.723877  -10124.99902     90.179085
   10938           0     -1047.595581  -1698.723877  -10374.99902     91.045700
   10939           0     -1047.595581  -1698.723877  -10625.00000     91.940063
   10940           0     -1047.595581  -1698.723877  -10875.00000     92.855453
   10941           0     -1047.595581  -1698.723877  -11125.00000     93.823509
   10942           0     -1047.595581  -1698.723877  -11375.00000     94.809456
   10943           0     -1047.595581  -1698.723877  -11625.00000     95.877724
   10944           0     -1047.595581  -1698.723877  -11875.00000     96.936089
   10945           0     -1047.595581  -1698.723877  -12125.00000     98.134811
   10946           0     -1047.595581  -1698.723877  -12374.99902     99.270554
   10947           0     -1047.595581  -1698.723877  -12625.00000    100.477470
   10948           0     -1047.595581  -1698.723877  -12874.99902    102.051620
   10949           0     -1047.595581  -1698.723877  -13124.99902    103.728546
   10950           0     -1047.595581  -1698.723877  -13374.99902    100.083115
   10951           0      -947.339722  -1756.606689   -124.999985     33.783321
   10952           0      -947.339722  -1756.606689   -375.000000     35.880886
   10953           0      -947.339722  -1756.606689   -624.999939     31.606268
   10954           0      -947.339722  -1756.606689   -875.000000     29.458527
   10955           0      -947.339722  -1756.606689  -1125.000000     27.140823
   10956           0      -947.339722  -1756.606689  -1375.000122     25.093876
   10957           0      -947.339722  -1756.606689  -1625.000000     23.580406
   10958           0      -947.339722  -1756.606689  -1874.999756     22.430227
   10959           0      -947.339722  -1756.606689  -2125.000000     22.058016
   10960           0      -947.339722  -1756.606689  -2375.000244     22.198700
   10961           0      -947.339722  -1756.606689  -2624.999756     23.156996
   10962           0      -947.339722  -1756.606689  -2874.999512     24.603441
   10963           0      -947.339722  -1756.606689  -3124.999756     26.669794
   10964           0      -947.339722  -1756.606689  -3375.000244     29.068199
   10965           0      -947.339722  -1756.606689  -3625.000244     31.842041
   10966           0      -947.339722  -1756.606689  -3875.000244     34.795254
   10967           0      -947.339722  -1756.606689  -4125.000000     37.938450
   10968           0      -947.339722  -1756.606689  -4375.000000     41.147896
   10969           0      -947.339722  -1756.606689  -4625.000000     44.419388
   10970           0      -947.339722  -1756.606689  -4875.000000     47.674206
   10971           0      -947.339722  -1756.606689  -5124.999512     50.901352
   10972           0      -947.339722  -1756.606689  -5374.999512     54.050533
   10973           0      -947.339722  -1756.606689  -5625.000000     57.109535
   10974           0      -947.339722  -1756.606689  -5875.000488     60.047085
   10975           0      -947.339722  -1756.606689  -6125.000977     62.853832
   10976           0      -947.339722  -1756.606689  -6375.000488     65.512093
   10977           0      -947.339722  -1756.606689  -6625.000000     68.017380
   10978           0      -947.339722  -1756.606689  -6875.000488     70.363274
   10979           0      -947.339722  -1756.606689  -7124.999512     72.551239
   10980           0      -947.339722  -1756.606689  -7374.999023     74.582123
   10981           0      -947.339722  -1756.606689  -7625.000000     76.464272
   10982           0      -947.339722  -1756.606689  -7875.000000     78.203964
   10983           0      -947.339722  -1756.606689  -8124.999023     79.815094
   10984           0      -947.339722  -1756.606689  -8374.999023     81.307251
   10985           0      -947.339722  -1756.606689  -8625.000000     82.698631
   10986           0      -947.339722  -1756.606689  -8875.000977     84.000946
   10987           0      -947.339722  -1756.606689  -9125.000000     85.234291
   10988           0      -947.339722  -1756.606689  -9374.999023     86.409279
   10989           0      -947.339722  -1756.606689  -9625.000000     87.547729
   10990           0      -947.339722  -1756.606689  -9875.000000     88.657387
   10991           0      -947.339722  -1756.606689  -10125.00000     89.758911
   10992           0      -947.339722  -1756.606689  -10375.00000     90.854805
   10993           0      -947.339722  -1756.606689  -10624.99902     91.966370
   10994           0      -947.339722  -1756.606689  -10875.00097     93.086967
   10995           0      -947.339722  -1756.606689  -11125.00097     94.239899
   10996           0      -947.339722  -1756.606689  -11375.00000     95.410767
   10997           0      -947.339722  -1756.606689  -11625.00000     96.625000
   10998           0      -947.339722  -1756.606689  -11875.00000     97.862404
   10999           0      -947.339722  -1756.606689  -12125.00000     99.135910
   11000           0      -947.339722  -1756.606689  -12374.99902    100.511703
   11001           0      -947.339722  -1756.606689  -12625.00000    101.752159
   11002           0      -947.339722  -1756.606689  -12874.99902    102.849121
   11003           0      -947.339722  -1756.606689  -13124.99804    107.864868
   11004           0      -947.339722  -1756.606689  -13374.99902     96.803581
   11005           0      -842.019836  -1805.718140   -124.999985     31.517693
   11006           0      -842.019836  -1805.718140   -374.999969     33.106628
   11007           0      -842.019836  -1805.718140   -624.999939     29.508524
   11008           0      -842.019836  -1805.718140   -874.999878     26.671566
   11009           0      -842.019836  -1805.718140  -1124.999878     24.723558
   11010           0      -842.019836  -1805.718140  -1375.000244     22.312037
   11011           0      -842.019836  -1805.718140  -1625.000000     20.679287
   11012           0      -842.019836  -1805.718140  -1874.999512     19.220503
   11013           0      -842.019836  -1805.718140  -2125.000244     18.454813
   11014           0      -842.019836  -1805.718140  -2375.000244     18.281626
   11015           0      -842.019836  -1805.718140  -2624.999756     18.789021
   11016           0      -842.019836  -1805.718140  -2874.999512     19.964626
   11017           0      -842.019836  -1805.718140  -3124.999512     21.644135
   11018           0      -842.019836  -1805.718140  -3375.000488     23.800323
   11019           0      -842.019836  -1805.718140  -3625.000488     26.241629
   11020           0      -842.019836  -1805.718140  -3875.000244     28.954142
   11021           0      -842.019836  -1805.718140  -4125.000488     31.802385
   11022           0      -842.019836  -1805.718140  -4375.000488     34.781628
   11023           0      -842.019836  -1805.718140  -4625.000488     37.804764
   11024           0      -842.019836  -1805.718140  -4874.999512     40.867783
   11025           0      -842.019836  -1805.718140  -5124.999512     43.914185
   11026           0      -842.019836  -1805.718140  -5374.999023     46.939121
   11027           0      -842.019836  -1805.718140  -5625.000000     49.905079
   11028           0      -842.019836  -1805.718140  -5875.000977     52.807678
   11029           0      -842.019836  -1805.718140  -6125.000977     55.622578
   11030           0      -842.019836  -1805.718140  -6375.000000     58.346962
   11031           0      -842.019836  -1805.718140  -6625.000000     60.966442
   11032           0      -842.019836  -1805.718140  -6875.000977     63.481571
   11033           0      -842.019836  -1805.718140  -7124.999023     65.885345
   11034           0      -842.019836  -1805.718140  -7374.998535     68.181335
   11035           0      -842.019836  -1805.718140  -7625.000000     70.369347
   11036           0      -842.019836  -1805.718140  -7875.000000     72.455803
   11037           0      -842.019836  -1805.718140  -8124.999023     74.445122
   11038           0      -842.019836  -1805.718140  -8374.999023     76.346741
   11039           0      -842.019775  -1805.718140  -8625.000000     78.167542
   11040           0      -842.019775  -1805.718140  -8875.000977     79.920639
   11041           0      -842.019775  -1805.718140  -9125.000000     81.611671
   11042           0      -842.019775  -1805.718140  -9374.998047     83.258430
   11043           0      -842.019775  -1805.718140  -9625.000000     84.861801
   11044           0      -842.019775  -1805.718140  -9875.000000     86.447464
   11045           0      -842.019775  -1805.718140  -10125.00000     88.003113
   11046           0      -842.019775  -1805.718140  -10375.00000     89.569160
   11047           0      -842.019775  -1805.718140  -10624.99804     91.111206
   11048           0      -842.019775  -1805.718140  -10875.00195     92.693474
   11049           0      -842.019775  -1805.718140  -11125.00195     94.244049
   11050           0      -842.019775  -1805.718140  -11375.00000     95.872620
   11051           0      -842.019775  -1805.718140  -11625.00000     97.441795
   11052           0      -842.019775  -1805.718140  -11875.00000     99.151237
   11053           0      -842.019775  -1805.718140  -12125.00000    100.689545
   11054           0      -842.019775  -1805.718140  -12375.00000    102.628632
   11055           0      -842.019775  -1805.718140  -12625.00000    104.154930
   11056           0      -842.019775  -1805.718140  -12874.99804    104.669022
   11057           0      -842.019775  -1805.718140  -13124.99609    113.890617
   11058           0      -842.019836  -1805.718140  -13374.99804     99.082115
   11059           0      -736.699951  -1854.829468   -124.999992     31.382820
   11060           0      -736.699951  -1854.829468   -375.000000     27.861864
   11061           0      -736.699951  -1854.829468   -625.000000     25.428385
   11062           0      -736.699951  -1854.829468   -874.999939     23.488226
   11063           0      -736.699951  -1854.829468  -1125.000000     20.875195
   11064           0      -736.699951  -1854.829468  -1375.000122     19.291323
   11065           0      -736.699951  -1854.829468  -1625.000000     17.431290
   11066           0      -736.699951  -1854.829468  -1874.999756     16.448782
   11067           0      -736.699951  -1854.829468  -2125.000000     15.720826
   11068           0      -736.699951  -1854.829468  -2375.000000     15.829999
   11069           0      -736.699951  -1854.829468  -2625.000000     16.462736
   11070           0      -736.699951  -1854.829468  -2874.999756     17.749813
   11071           0      -736.699951  -1854.829468  -3125.000000     19.483789
   11072           0      -736.699951  -1854.829468  -3375.000244     21.601027
   11073           0      -736.699951  -1854.829468  -3625.000000     23.993055
   11074           0      -736.699951  -1854.829468  -3875.000000     26.580935
   11075           0      -736.699951  -1854.829468  -4125.000000     29.319118
   11076           0      -736.699951  -1854.829468  -4375.000000     32.148548
   11077           0      -736.699951  -1854.829468  -4625.000000     35.048710
   11078           0      -736.699951  -1854.829468  -4875.000000     37.977669
   11079           0      -736.699951  -1854.829468  -5125.000000     40.922882
   11080           0      -736.699951  -1854.829468  -5375.000000     43.854450
   11081           0      -736.699951  -1854.829468  -5625.000000     46.762695
   11082           0      -736.699951  -1854.829468  -5875.000488     49.626953
   11083           0      -736.699951  -1854.829468  -6125.000488     52.439621
   11084           0      -736.699951  -1854.829468  -6375.000000     55.187366
   11085           0      -736.699951  -1854.829468  -6625.000000     57.865433
   11086           0      -736.699951  -1854.829468  -6875.000000     60.467308
   11087           0      -736.699951  -1854.829468  -7124.999512     62.991428
   11088           0      -736.699951  -1854.829468  -7374.999023     65.436569
   11089           0      -736.699951  -1854.829468  -7625.000000     67.805168
   11090           0      -736.699951  -1854.829468  -7875.000000     70.100143
   11091           0      -736.699951  -1854.829468  -8125.000000     72.327240
   11092           0      -736.699951  -1854.829468  -8375.000000     74.492111
   11093           0      -736.699951  -1854.829468  -8625.000000     76.603203
   11094           0      -736.699951  -1854.829468  -8875.000000     78.667213
   11095           0      -736.699951  -1854.829468  -9125.000000     80.694664
   11096           0      -736.699951  -1854.829468  -9375.000000     82.689735
   11097           0      -736.699951  -1854.829468  -9625.000000     84.666824
   11098           0      -736.699951  -1854.829468  -9875.000000     86.623573
   11099           0      -736.699951  -1854.829468  -10124.99902     88.581062
   11100           0      -736.699890  -1854.829468  -10374.99902     90.522682
   11101           0      -736.699890  -1854.829468  -10625.00000     92.488518
   11102           0      -736.699890  -1854.829468  -10875.00000     94.429871
   11103           0      -736.699890  -1854.829468  -11125.00000     96.428955
   11104           0      -736.699890  -1854.829468  -11375.00000     98.374077
   11105           0      -736.699890  -1854.829468  -11625.00000    100.436035
   11106           0      -736.699890  -1854.829468  -11875.00000    102.367210
   11107           0      -736.699890  -1854.829468  -12125.00000    104.544762
   11108           0      -736.699890  -1854.829468  -12374.99902    106.422592
   11109           0      -736.699890  -1854.829468  -12625.00000    108.699333
   11110           0      -736.699890  -1854.829468  -12874.99902    110.652306
   11111           0      -736.699890  -1854.829468  -13124.99902    114.043098
   11112           0      -736.699951  -1854.829468  -13374.99902    109.246460
   11113           0      -627.916016  -1894.423584   -124.999985     24.275518
   11114           0      -627.916016  -1894.423584   -375.000000     24.845064
   11115           0      -627.916016  -1894.423584   -624.999939     21.829782
   11116           0      -627.916016  -1894.423584   -875.000000     20.019308
   11117           0      -627.916016  -1894.423584  -1125.000000     17.993450
   11118           0      -627.916016  -1894.423584  -1375.000122     16.249737
   11119           0      -627.916016  -1894.423584  -1625.000000     14.846170
   11120           0      -627.916016  -1894.423584  -1874.999756     13.756759
   11121           0      -627.916016  -1894.423584  -2125.000000     13.321553
   11122           0      -627.916016  -1894.423584  -2375.000244     13.351951
   11123           0      -627.916016  -1894.423584  -2624.999756     14.118161
   11124           0      -627.916016  -1894.423584  -2874.999512     15.311622
   11125           0      -627.916016  -1894.423584  -3124.999756     17.025280
   11126           0      -627.916016  -1894.423584  -3375.000244     19.000572
   11127           0      -627.916016  -1894.423584  -3625.000244     21.268152
   11128           0      -627.916016  -1894.423584  -3875.000244     23.678583
   11129           0      -627.916016  -1894.423584  -4125.000000     26.245525
   11130           0      -627.916016  -1894.423584  -4375.000000     28.889128
   11131           0      -627.916016  -1894.423584  -4625.000000     31.612572
   11132           0      -627.916016  -1894.423584  -4875.000000     34.371304
   11133           0      -627.916016  -1894.423584  -5124.999512     37.161530
   11134           0      -627.916016  -1894.423584  -5374.999512     39.956917
   11135           0      -627.916016  -1894.423584  -5625.000000     42.750416
   11136           0      -627.916016  -1894.423584  -5875.000488     45.525818
   11137           0      -627.916016  -1894.423584  -6125.000977     48.276340
   11138           0      -627.916016  -1894.423584  -6375.000488     50.992073
   11139           0      -627.916016  -1894.423584  -6625.000000     53.668438
   11140           0      -627.916016  -1894.423584  -6875.000488     56.300880
   11141           0      -627.916016  -1894.423584  -7124.999512     58.888721
   11142           0      -627.916016  -1894.423584  -7374.999023     61.429924
   11143           0      -627.916016  -1894.423584  -7625.000000     63.929348
   11144           0      -627.916016  -1894.423584  -7875.000000     66.386230
   11145           0      -627.916016  -1894.423584  -8124.999023     68.810501
   11146           0      -627.916016  -1894.423584  -8374.999023     71.200798
   11147           0      -627.916016  -1894.423584  -8625.000000     73.571800
   11148           0      -627.916016  -1894.423584  -8875.000977     75.919998
   11149           0      -627.916016  -1894.423584  -9125.000000     78.263931
   11150           0      -627.916016  -1894.423584  -9374.999023     80.593620
   11151           0      -627.916016  -1894.423584  -9625.000000     82.934128
   11152           0      -627.916016  -1894.423584  -9875.000000     85.265907
   11153           0      -627.916016  -1894.423584  -10125.00000     87.621590
   11154           0      -627.916016  -1894.423584  -10375.00000     89.967529
   11155           0      -627.916016  -1894.423584  -10624.99902     92.351746
   11156           0      -627.916016  -1894.423584  -10875.00097     94.718903
   11157           0      -627.916016  -1894.423584  -11125.00097     97.141129
   11158           0      -627.916016  -1894.423584  -11375.00000     99.530594
   11159           0      -627.916016  -1894.423584  -11625.00000    101.999344
   11160           0      -627.916016  -1894.423584  -11875.00000    104.411934
   11161           0      -627.916016  -1894.423584  -12125.00000    106.922462
   11162           0      -627.916016  -1894.423584  -12374.99902    109.409630
   11163           0      -627.916016  -1894.423584  -12625.00000    111.892296
   11164           0      -627.916016  -1894.423584  -12874.99902    113.955299
   11165           0      -627.916016  -1894.423584  -13124.99804    120.599113
   11166           0      -627.916016  -1894.423584  -13374.99902    109.121872
   11167           0      -515.667969  -1924.500366   -124.999985     20.579422
   11168           0      -515.667969  -1924.500366   -374.999969     21.240084
   11169           0      -515.667969  -1924.500366   -624.999939     19.292713
   11170           0      -515.667969  -1924.500366   -874.999878     17.143873
   11171           0      -515.667969  -1924.500366  -1124.999878     16.004717
   11172           0      -515.667969  -1924.500366  -1375.000244     14.448474
   11173           0      -515.667969  -1924.500366  -1625.000000     13.554447
   11174           0      -515.667969  -1924.500366  -1874.999512     12.842172
   11175           0      -515.667969  -1924.500366  -2125.000244     12.673217
   11176           0      -515.667969  -1924.500366  -2375.000244     12.967498
   11177           0      -515.667969  -1924.500366  -2624.999756     13.719664
   11178           0      -515.667969  -1924.500366  -2874.999512     14.915768
   11179           0      -515.667969  -1924.500366  -3124.999512     16.409012
   11180           0      -515.667969  -1924.500366  -3375.000488     18.199808
   11181           0      -515.667969  -1924.500366  -3625.000488     20.159250
   11182           0      -515.667969  -1924.500366  -3875.000244     22.297560
   11183           0      -515.667969  -1924.500366  -4125.000488     24.532578
   11184           0      -515.667969  -1924.500366  -4375.000488     26.873772
   11185           0      -515.667969  -1924.500366  -4625.000488     29.271654
   11186           0      -515.667969  -1924.500366  -4874.999512     31.731440
   11187           0      -515.667969  -1924.500366  -5124.999512     34.222576
   11188           0      -515.667969  -1924.500366  -5374.999023     36.747124
   11189           0      -515.667969  -1924.500366  -5625.000000     39.285343
   11190           0      -515.667969  -1924.500366  -5875.000977     41.838203
   11191           0      -515.667969  -1924.500366  -6125.000977     44.392826
   11192           0      -515.667969  -1924.500366  -6375.000000     46.950207
   11193           0      -515.667969  -1924.500366  -6625.000000     49.502228
   11194           0      -515.667969  -1924.500366  -6875.000977     52.052151
   11195           0      -515.667969  -1924.500366  -7124.999023     54.594757
   11196           0      -515.667969  -1924.500366  -7374.998535     57.135159
   11197           0      -515.667969  -1924.500366  -7625.000000     59.670937
   11198           0      -515.667969  -1924.500366  -7875.000000     62.209610
   11199           0      -515.667969  -1924.500366  -8124.999023     64.748962
   11200           0      -515.667969  -1924.500366  -8374.999023     67.299820
   11201           0      -515.667969  -1924.500366  -8625.000000     69.857506
   11202           0      -515.667969  -1924.500366  -8875.000977     72.438179
   11203           0      -515.667969  -1924.500366  -9125.000000     75.029228
   11204           0      -515.667969  -1924.500366  -9374.998047     77.655411
   11205           0      -515.667969  -1924.500366  -9625.000000     80.291122
   11206           0      -515.667969  -1924.500366  -9875.000000     82.976563
   11207           0      -515.667969  -1924.500366  -10125.00000     85.661057
   11208           0      -515.667969  -1924.500366  -10375.00000     88.414398
   11209           0      -515.667969  -1924.500366  -10624.99804     91.144943
   11210           0      -515.667969  -1924.500366  -10875.00195     93.973938
   11211           0      -515.667969  -1924.500366  -11125.00195     96.740517
   11212           0      -515.667969  -1924.500366  -11375.00000     99.652550
   11213           0      -515.667969  -1924.500366  -11625.00000    102.436089
   11214           0      -515.667969  -1924.500366  -11875.00000    105.461716
   11215           0      -515.667969  -1924.500366  -12125.00000    108.175392
   11216           0      -515.667969  -1924.500366  -12375.00000    111.477104
   11217           0      -515.667969  -1924.500366  -12625.00000    114.142059
   11218           0      -515.667969  -1924.500366  -12874.99804    115.728333
   11219           0      -515.667969  -1924.500366  -13124.99609    127.547218
   11220           0      -515.667969  -1924.500366  -13374.99804    110.567230
   11221           0      -403.420013  -1954.577148   -124.999992     18.497618
   11222           0      -403.420013  -1954.577148   -375.000000     15.561953
   11223           0      -403.420013  -1954.577148   -625.000000     14.462145
   11224           0      -403.420013  -1954.577148   -874.999939     13.343386
   11225           0      -403.420013  -1954.577148  -1125.000000     11.884399
   11226           0      -403.420013  -1954.577148  -1375.000122     11.148374
   11227           0      -403.420013  -1954.577148  -1625.000000     10.263596
   11228           0      -403.420013  -1954.577148  -1874.999756     10.017228
   11229           0      -403.420013  -1954.577148  -2125.000000      9.984459
   11230           0      -403.420013  -1954.577148  -2375.000000     10.494164
   11231           0      -403.420013  -1954.577148  -2625.000000     11.328568
   11232           0      -403.420013  -1954.577148  -2874.999756     12.524537
   11233           0      -403.420013  -1954.577148  -3125.000000     13.970239
   11234           0      -403.420013  -1954.577148  -3375.000244     15.619522
   11235           0      -403.420013  -1954.577148  -3625.000000     17.431292
   11236           0      -403.420013  -1954.577148  -3875.000000     19.360634
   11237           0      -403.420013  -1954.577148  -4125.000000     21.397533
   11238           0      -403.420013  -1954.577148  -4375.000000     23.510677
   11239           0      -403.420013  -1954.577148  -4625.000000     25.699522
   11240           0      -403.420013  -1954.577148  -4875.000000     27.943926
   11241           0      -403.420013  -1954.577148  -5125.000000     30.245049
   11242           0      -403.420013  -1954.577148  -5375.000000     32.590546
   11243           0      -403.420013  -1954.577148  -5625.000000     34.981426
   11244           0      -403.420013  -1954.577148  -5875.000488     37.410847
   11245           0      -403.420013  -1954.577148  -6125.000488     39.879814
   11246           0      -403.420013  -1954.577148  -6375.000000     42.384907
   11247           0      -403.420013  -1954.577148  -6625.000000     44.927902
   11248           0      -403.420013  -1954.577148  -6875.000000     47.507877
   11249           0      -403.420013  -1954.577148  -7124.999512     50.127712
   11250           0      -403.420013  -1954.577148  -7374.999023     52.786858
   11251           0      -403.420013  -1954.577148  -7625.000000     55.490318
   11252           0      -403.420013  -1954.577148  -7875.000000     58.236263
   11253           0      -403.420013  -1954.577148  -8125.000000     61.031582
   11254           0      -403.420013  -1954.577148  -8375.000000     63.871578
   11255           0      -403.420013  -1954.577148  -8625.000000     66.765488
   11256           0      -403.420013  -1954.577148  -8875.000000     69.703804
   11257           0      -403.420013  -1954.577148  -9125.000000     72.699684
   11258           0      -403.420013  -1954.577148  -9375.000000     75.734741
   11259           0      -403.420013  -1954.577148  -9625.000000     78.831100
   11260           0      -403.420013  -1954.577148  -9875.000000     81.956177
   11261           0      -403.420013  -1954.577148  -10124.99902     85.148460
   11262           0      -403.420013  -1954.577148  -10374.99902     88.350029
   11263           0      -403.420013  -1954.577148  -10625.00000     91.634232
   11264           0      -403.420013  -1954.577148  -10875.00000     94.893494
   11265           0      -403.419983  -1954.577148  -11125.00000     98.269363
   11266           0      -403.419983  -1954.577148  -11375.00000    101.557678
   11267           0      -403.419983  -1954.577148  -11625.00000    105.039101
   11268           0      -403.419983  -1954.577148  -11875.00000    108.309212
   11269           0      -403.419983  -1954.577148  -12125.00000    111.939171
   11270           0      -403.419983  -1954.577148  -12374.99902    115.118980
   11271           0      -403.419983  -1954.577148  -12625.00000    118.924530
   11272           0      -403.419983  -1954.577148  -12874.99902    121.894028
   11273           0      -403.419983  -1954.577148  -13124.99902    127.753189
   11274           0      -403.420013  -1954.577148  -13374.99902    121.653488
   11275           0      -289.413330  -1974.679565   -124.999985     13.036422
   11276           0      -289.413330  -1974.679565   -375.000000     13.093995
   11277           0      -289.413330  -1974.679565   -624.999939     12.002483
   11278           0      -289.413330  -1974.679565   -875.000000     10.979784
   11279           0      -289.413330  -1974.679565  -1125.000000     10.193172
   11280           0      -289.413330  -1974.679565  -1375.000122      9.431360
   11281           0      -289.413330  -1974.679565  -1625.000000      9.080020
   11282           0      -289.413330  -1974.679565  -1874.999756      8.877465
   11283           0      -289.413330  -1974.679565  -2125.000000      9.169285
   11284           0      -289.413330  -1974.679565  -2375.000244      9.678296
   11285           0      -289.413330  -1974.679565  -2624.999756     10.601420
   11286           0      -289.413330  -1974.679565  -2874.999512     11.703288
   11287           0      -289.413330  -1974.679565  -3124.999756     13.070767
   11288           0      -289.413330  -1974.679565  -3375.000244     14.559470
   11289           0      -289.413330  -1974.679565  -3625.000244     16.208059
   11290           0      -289.413330  -1974.679565  -3875.000244     17.941784
   11291           0      -289.413330  -1974.679565  -4125.000000     19.778217
   11292           0      -289.413330  -1974.679565  -4375.000000     21.681360
   11293           0      -289.413330  -1974.679565  -4625.000000     23.658800
   11294           0      -289.413330  -1974.679565  -4875.000000     25.694571
   11295           0      -289.413330  -1974.679565  -5124.999512     27.791672
   11296           0      -289.413330  -1974.679565  -5374.999512     29.944674
   11297           0      -289.413330  -1974.679565  -5625.000000     32.154877
   11298           0      -289.413330  -1974.679565  -5875.000488     34.422272
   11299           0      -289.413330  -1974.679565  -6125.000977     36.748474
   11300           0      -289.413330  -1974.679565  -6375.000488     39.135792
   11301           0      -289.413330  -1974.679565  -6625.000000     41.586521
   11302           0      -289.413330  -1974.679565  -6875.000488     44.104115
   11303           0      -289.413330  -1974.679565  -7124.999512     46.691975
   11304           0      -289.413330  -1974.679565  -7374.999023     49.351620
   11305           0      -289.413330  -1974.679565  -7625.000000     52.088406
   11306           0      -289.413330  -1974.679565  -7875.000000     54.900291
   11307           0      -289.413330  -1974.679565  -8124.999023     57.794270
   11308           0      -289.413330  -1974.679565  -8374.999023     60.763016
   11309           0      -289.413330  -1974.679565  -8625.000000     63.815914
   11310           0      -289.413330  -1974.679565  -8875.000977     66.939339
   11311           0      -289.413330  -1974.679565  -9125.000000     70.146347
   11312           0      -289.413330  -1974.679565  -9374.999023     73.413300
   11313           0      -289.413361  -1974.679565  -9625.000000     76.762817
   11314           0      -289.413361  -1974.679565  -9875.000000     80.157524
   11315           0      -289.413361  -1974.679565  -10125.00000     83.634811
   11316           0      -289.413361  -1974.679565  -10375.00000     87.135361
   11317           0      -289.413361  -1974.679565  -10624.99902     90.726768
   11318           0      -289.413361  -1974.679565  -10875.00097     94.309166
   11319           0      -289.413361  -1974.679565  -11125.00097     98.002182
   11320           0      -289.413361  -1974.679565  -11375.00000    101.639641
   11321           0      -289.413361  -1974.679565  -11625.00000    105.430641
   11322           0      -289.413361  -1974.679565  -11875.00000    109.087555
   11323           0      -289.413361  -1974.679565  -12125.00000    112.979362
   11324           0      -289.413361  -1974.679565  -12374.99902    116.646149
   11325           0      -289.413361  -1974.679565  -12625.00000    120.626068
   11326           0      -289.413361  -1974.679565  -12874.99902    123.740990
   11327           0      -289.413361  -1974.679565  -13124.99804    131.907776
   11328           0      -289.413330  -1974.679565  -13374.99902    121.121086
   11329           0      -173.647873  -1984.807617   -124.999985     12.040940
   11330           0      -173.647873  -1984.807617   -374.999969     12.211592
   11331           0      -173.647873  -1984.807617   -624.999939     11.728658
   11332           0      -173.647873  -1984.807617   -874.999878     10.734868
   11333           0      -173.647873  -1984.807617  -1124.999878     10.532203
   11334           0      -173.647873  -1984.807617  -1375.000244     10.175175
   11335           0      -173.647873  -1984.807617  -1625.000000     10.240626
   11336           0      -173.647873  -1984.807617  -1874.999512     10.486904
   11337           0      -173.647873  -1984.807617  -2125.000244     11.004204
   11338           0      -173.647873  -1984.807617  -2375.000244     11.759163
   11339           0      -173.647873  -1984.807617  -2624.999756     12.692598
   11340           0      -173.647873  -1984.807617  -2874.999512     13.817966
   11341           0      -173.647873  -1984.807617  -3124.999512     15.056889
   11342           0      -173.647873  -1984.807617  -3375.000488     16.429920
   11343           0      -173.647873  -1984.807617  -3625.000488     17.879044
   11344           0      -173.647873  -1984.807617  -3875.000244     19.420473
   11345           0      -173.647873  -1984.807617  -4125.000488     21.019442
   11346           0      -173.647888  -1984.807617  -4375.000488     22.687157
   11347           0      -173.647888  -1984.807617  -4625.000488     24.405432
   11348           0      -173.647888  -1984.807617  -4874.999512     26.182682
   11349           0      -173.647888  -1984.807617  -5124.999512     28.011028
   11350           0      -173.647888  -1984.807617  -5374.999023     29.898186
   11351           0      -173.647888  -1984.807617  -5625.000000     31.842308
   11352           0      -173.647888  -1984.807617  -5875.000977     33.851570
   11353           0      -173.647888  -1984.807617  -6125.000977     35.927402
   11354           0      -173.647888  -1984.807617  -6375.000000     38.078072
   11355           0      -173.647888  -1984.807617  -6625.000000     40.306004
   11356           0      -173.647873  -1984.807617  -6875.000977     42.620583
   11357           0      -173.647873  -1984.807617  -7124.999023     45.022793
   11358           0      -173.647873  -1984.807617  -7374.998535     47.521343
   11359           0      -173.647888  -1984.807617  -7625.000000     50.115124
   11360           0      -173.647888  -1984.807617  -7875.000000     52.812550
   11361           0      -173.647888  -1984.807617  -8124.999023     55.607430
   11362           0      -173.647888  -1984.807617  -8374.999023     58.509453
   11363           0      -173.647888  -1984.807617  -8625.000000     61.504978
   11364           0      -173.647888  -1984.807617  -8875.000977     64.608833
   11365           0      -173.647888  -1984.807617  -9125.000000     67.794746
   11366           0      -173.647888  -1984.807617  -9374.998047     71.088524
   11367           0      -173.647888  -1984.807617  -9625.000000     74.446304
   11368           0      -173.647888  -1984.807617  -9875.000000     77.915260
   11369           0      -173.647888  -1984.807617  -10125.00000     81.419586
   11370           0      -173.647888  -1984.807617  -10375.00000     85.046623
   11371           0      -173.647888  -1984.807617  -10624.99804     88.668976
   11372           0      -173.647888  -1984.807617  -10875.00195     92.440269
   11373           0      -173.647888  -1984.807617  -11125.00195     96.144890
   11374           0      -173.647888  -1984.807617  -11375.00000    100.056534
   11375           0      -173.647888  -1984.807617  -11625.00000    103.798164
   11376           0      -173.647888  -1984.807617  -11875.00000    107.870895
   11377           0      -173.647888  -1984.807617  -12125.00000    111.534889
   11378           0      -173.647888  -1984.807617  -12375.00000    115.939819
   11379           0      -173.647903  -1984.807617  -12625.00000    119.529663
   11380           0      -173.647903  -1984.807617  -12874.99804    122.062378
   11381           0      -173.647903  -1984.807617  -13124.99609    135.767929
   11382           0      -173.647888  -1984.807617  -13374.99804    117.490616
   11383           0       -57.882427  -1994.935791   -124.999992     11.491749
   11384           0       -57.882427  -1994.935791   -375.000000      9.554723
   11385           0       -57.882427  -1994.935791   -625.000000      9.055762
   11386           0       -57.882427  -1994.935791   -874.999939      8.621737
   11387           0       -57.882427  -1994.935791  -1125.000000      7.899577
   11388           0       -57.882427  -1994.935791  -1375.000122      7.725745
   11389           0       -57.882427  -1994.935791  -1625.000000      7.449317
   11390           0       -57.882427  -1994.935791  -1874.999756      7.610190
   11391           0       -57.882427  -1994.935791  -2125.000000      7.901764
   11392           0       -57.882427  -1994.935791  -2375.000000      8.516983
   11393           0       -57.882427  -1994.935791  -2625.000000      9.311150
   11394           0       -57.882427  -1994.935791  -2874.999756     10.311388
   11395           0       -57.882427  -1994.935791  -3125.000000     11.452562
   11396           0       -57.882427  -1994.935791  -3375.000244     12.717840
   11397           0       -57.882427  -1994.935791  -3625.000000     14.082924
   11398           0       -57.882427  -1994.935791  -3875.000000     15.529654
   11399           0       -57.882427  -1994.935791  -4125.000000     17.051792
   11400           0       -57.882427  -1994.935791  -4375.000000     18.638771
   11401           0       -57.882427  -1994.935791  -4625.000000     20.291990
   11402           0       -57.882427  -1994.935791  -4875.000000     22.008493
   11403           0       -57.882427  -1994.935791  -5125.000000     23.793156
   11404           0       -57.882427  -1994.935791  -5375.000000     25.648737
   11405           0       -57.882427  -1994.935791  -5625.000000     27.581682
   11406           0       -57.882427  -1994.935791  -5875.000488     29.598175
   11407           0       -57.882427  -1994.935791  -6125.000488     31.705240
   11408           0       -57.882427  -1994.935791  -6375.000000     33.909470
   11409           0       -57.882427  -1994.935791  -6625.000000     36.217705
   11410           0       -57.882423  -1994.935791  -6875.000000     38.635139
   11411           0       -57.882420  -1994.935791  -7124.999512     41.167767
   11412           0       -57.882420  -1994.935791  -7374.999023     43.816326
   11413           0       -57.882420  -1994.935791  -7625.000000     46.586891
   11414           0       -57.882420  -1994.935791  -7875.000000     49.474060
   11415           0       -57.882420  -1994.935791  -8125.000000     52.484451
   11416           0       -57.882420  -1994.935791  -8375.000000     55.605465
   11417           0       -57.882420  -1994.935791  -8625.000000     58.846336
   11418           0       -57.882420  -1994.935791  -8875.000000     62.186199
   11419           0       -57.882420  -1994.935791  -9125.000000     65.640236
   11420           0       -57.882420  -1994.935791  -9375.000000     69.175713
   11421           0       -57.882420  -1994.935791  -9625.000000     72.820648
   11422           0       -57.882420  -1994.935791  -9875.000000     76.524635
   11423           0       -57.882420  -1994.935791  -10124.99902     80.337349
   11424           0       -57.882420  -1994.935791  -10374.99902     84.178383
   11425           0       -57.882420  -1994.935791  -10625.00000     88.138969
   11426           0       -57.882420  -1994.935791  -10875.00000     92.082123
   11427           0       -57.882420  -1994.935791  -11125.00000     96.175301
   11428           0       -57.882420  -1994.935791  -11375.00000    100.180679
   11429           0       -57.882420  -1994.935791  -11625.00000    104.404007
   11430           0       -57.882420  -1994.935791  -11875.00000    108.415787
   11431           0       -57.882420  -1994.935791  -12125.00000    112.791771
   11432           0       -57.882420  -1994.935791  -12374.99902    116.746933
   11433           0       -57.882420  -1994.935791  -12625.00000    121.281914
   11434           0       -57.882420  -1994.935791  -12874.99902    124.888817
   11435           0       -57.882420  -1994.935791  -13124.99902    132.316055
   11436           0       -57.882423  -1994.935791  -13374.99902    124.864647
   11437           0        57.883011  -1994.935791   -124.999985      9.033335
   11438           0        57.883011  -1994.935791   -375.000000      9.495420
   11439           0        57.883011  -1994.935791   -624.999939      8.895765
   11440           0        57.883011  -1994.935791   -875.000000      8.106665
   11441           0        57.883011  -1994.935791  -1125.000000      7.739220
   11442           0        57.883011  -1994.935791  -1375.000122      7.214983
   11443           0        57.883011  -1994.935791  -1625.000000      7.092954
   11444           0        57.883011  -1994.935791  -1874.999756      7.030190
   11445           0        57.883011  -1994.935791  -2125.000000      7.369014
   11446           0        57.883011  -1994.935791  -2375.000244      7.849769
   11447           0        57.883011  -1994.935791  -2624.999756      8.648678
   11448           0        57.883011  -1994.935791  -2874.999512      9.571897
   11449           0        57.883011  -1994.935791  -3124.999756     10.697798
   11450           0        57.883018  -1994.935791  -3375.000244     11.911476
   11451           0        57.883018  -1994.935791  -3625.000244     13.249488
   11452           0        57.883018  -1994.935791  -3875.000244     14.652705
   11453           0        57.883018  -1994.935791  -4125.000000     16.140306
   11454           0        57.883018  -1994.935791  -4375.000000     17.685104
   11455           0        57.883018  -1994.935791  -4625.000000     19.299006
   11456           0        57.883018  -1994.935791  -4875.000000     20.972692
   11457           0        57.883018  -1994.935791  -5124.999512     22.715288
   11458           0        57.883018  -1994.935791  -5374.999512     24.527605
   11459           0        57.883018  -1994.935791  -5625.000000     26.417664
   11460           0        57.883018  -1994.935791  -5875.000488     28.391396
   11461           0        57.883018  -1994.935791  -6125.000977     30.456455
   11462           0        57.883018  -1994.935791  -6375.000488     32.620079
   11463           0        57.883018  -1994.935791  -6625.000000     34.888752
   11464           0        57.883018  -1994.935791  -6875.000488     37.268993
   11465           0        57.883018  -1994.935791  -7124.999512     39.765713
   11466           0        57.883018  -1994.935791  -7374.999023     42.381432
   11467           0        57.883018  -1994.935791  -7625.000000     45.120220
   11468           0        57.883018  -1994.935791  -7875.000000     47.979221
   11469           0        57.883018  -1994.935791  -8124.999023     50.961857
   11470           0        57.883018  -1994.935791  -8374.999023     54.059128
   11471           0        57.883018  -1994.935791  -8625.000000     57.275501
   11472           0        57.883018  -1994.935791  -8875.000977     60.595768
   11473           0        57.883018  -1994.935791  -9125.000000     64.027672
   11474           0        57.883018  -1994.935791  -9374.999023     67.546860
   11475           0        57.883018  -1994.935791  -9625.000000     71.170860
   11476           0        57.883018  -1994.935791  -9875.000000     74.861832
   11477           0        57.883022  -1994.935791  -10125.00000     78.653625
   11478           0        57.883026  -1994.935791  -10375.00000     82.484528
   11479           0        57.883026  -1994.935791  -10624.99902     86.423080
   11480           0        57.883026  -1994.935791  -10875.00097     90.359413
   11481           0        57.883026  -1994.935791  -11125.00097     94.428207
   11482           0        57.883026  -1994.935791  -11375.00000     98.430084
   11483           0        57.883026  -1994.935791  -11625.00000    102.625916
   11484           0        57.883026  -1994.935791  -11875.00000    106.638321
   11485           0        57.883026  -1994.935791  -12125.00000    110.981247
   11486           0        57.883026  -1994.935791  -12374.99902    114.940224
   11487           0        57.883026  -1994.935791  -12625.00000    119.475281
   11488           0        57.883026  -1994.935791  -12874.99902    122.876259
   11489           0        57.883026  -1994.935791  -13124.99804    131.011185
   11490           0        57.883018  -1994.935791  -13374.99902    121.906235
   11491           0       173.648453  -1984.807617   -124.999985     11.388914
   11492           0       173.648453  -1984.807617   -374.999969     11.865441
   11493           0       173.648453  -1984.807617   -624.999939     11.204121
   11494           0       173.648453  -1984.807617   -874.999878     10.236623
   11495           0       173.648438  -1984.807617  -1124.999878      9.955127
   11496           0       173.648438  -1984.807617  -1375.000244      9.478622
   11497           0       173.648438  -1984.807617  -1625.000000      9.427679
   11498           0       173.648438  -1984.807617  -1874.999512      9.507851
   11499           0       173.648438  -1984.807617  -2125.000244      9.878329
   11500           0       173.648438  -1984.807617  -2375.000244     10.465682
   11501           0       173.648438  -1984.807617  -2624.999756     11.252479
   11502           0       173.648438  -1984.807617  -2874.999512     12.225131
   11503           0       173.648438  -1984.807617  -3124.999512     13.324561
   11504           0       173.648438  -1984.807617  -3375.000488     14.555196
   11505           0       173.648438  -1984.807617  -3625.000488     15.867716
   11506           0       173.648438  -1984.807617  -3875.000244     17.269730
   11507           0       173.648438  -1984.807617  -4125.000488     18.730772
   11508           0       173.648438  -1984.807617  -4375.000488     20.257730
   11509           0       173.648438  -1984.807617  -4625.000488     21.834879
   11510           0       173.648438  -1984.807617  -4874.999512     23.468643
   11511           0       173.648438  -1984.807617  -5124.999512     25.152912
   11512           0       173.648422  -1984.807617  -5374.999023     26.894775
   11513           0       173.648407  -1984.807617  -5625.000000     28.693905
   11514           0       173.648407  -1984.807617  -5875.000977     30.558706
   11515           0       173.648407  -1984.807617  -6125.000977     32.492065
   11516           0       173.648407  -1984.807617  -6375.000000     34.502838
   11517           0       173.648407  -1984.807617  -6625.000000     36.594822
   11518           0       173.648407  -1984.807617  -6875.000977     38.777988
   11519           0       173.648407  -1984.807617  -7124.999023     41.054512
   11520           0       173.648407  -1984.807617  -7374.998535     43.433350
   11521           0       173.648407  -1984.807617  -7625.000000     45.914272
   11522           0       173.648407  -1984.807617  -7875.000000     48.505478
   11523           0       173.648407  -1984.807617  -8124.999023     51.201336
   11524           0       173.648407  -1984.807617  -8374.999023     54.010742
   11525           0       173.648407  -1984.807617  -8625.000000     56.920490
   11526           0       173.648407  -1984.807617  -8875.000977     59.944050
   11527           0       173.648407  -1984.807617  -9125.000000     63.055813
   11528           0       173.648407  -1984.807617  -9374.998047     66.279472
   11529           0       173.648392  -1984.807617  -9625.000000     69.572617
   11530           0       173.648376  -1984.807617  -9875.000000     72.979050
   11531           0       173.648376  -1984.807617  -10125.00000     76.426216
   11532           0       173.648392  -1984.807617  -10375.00000     79.995972
   11533           0       173.648392  -1984.807617  -10624.99804     83.566704
   11534           0       173.648392  -1984.807617  -10875.00195     87.283966
   11535           0       173.648392  -1984.807617  -11125.00195     90.941666
   11536           0       173.648376  -1984.807617  -11375.00000     94.799324
   11537           0       173.648376  -1984.807617  -11625.00000     98.499077
   11538           0       173.648376  -1984.807617  -11875.00000    102.515411
   11539           0       173.648376  -1984.807617  -12125.00000    106.144585
   11540           0       173.648376  -1984.807617  -12375.00000    110.482910
   11541           0       173.648376  -1984.807617  -12625.00000    114.045013
   11542           0       173.648376  -1984.807617  -12874.99804    116.568901
   11543           0       173.648376  -1984.807617  -13124.99609    129.933319
   11544           0       173.648422  -1984.807617  -13374.99804    112.293022
   11545           0       289.413879  -1974.679443   -124.999992     13.872952
   11546           0       289.413879  -1974.679443   -375.000000     12.131214
   11547           0       289.413879  -1974.679443   -625.000000     10.972935
   11548           0       289.413879  -1974.679443   -874.999939     10.112786
   11549           0       289.413879  -1974.679443  -1125.000000      8.707211
   11550           0       289.413879  -1974.679443  -1375.000122      7.919960
   11551           0       289.413879  -1974.679443  -1625.000000      6.851196
   11552           0       289.413879  -1974.679443  -1874.999756      6.310669
   11553           0       289.413879  -1974.679443  -2125.000000      5.905881
   11554           0       289.413879  -1974.679443  -2375.000000      6.061226
   11555           0       289.413879  -1974.679443  -2625.000000      6.576535
   11556           0       289.413879  -1974.679443  -2874.999756      7.499247
   11557           0       289.413879  -1974.679443  -3125.000000      8.675667
   11558           0       289.413879  -1974.679443  -3375.000244     10.052562
   11559           0       289.413879  -1974.679443  -3625.000000     11.566541
   11560           0       289.413879  -1974.679443  -3875.000000     13.183655
   11561           0       289.413849  -1974.679443  -4125.000000     14.883295
   11562           0       289.413849  -1974.679443  -4375.000000     16.649319
   11563           0       289.413849  -1974.679443  -4625.000000     18.475096
   11564           0       289.413849  -1974.679443  -4875.000000     20.354557
   11565           0       289.413849  -1974.679443  -5125.000000     22.285870
   11566           0       289.413849  -1974.679443  -5375.000000     24.268852
   11567           0       289.413849  -1974.679443  -5625.000000     26.303909
   11568           0       289.413849  -1974.679443  -5875.000488     28.394426
   11569           0       289.413849  -1974.679443  -6125.000488     30.542631
   11570           0       289.413849  -1974.679443  -6375.000000     32.753044
   11571           0       289.413849  -1974.679443  -6625.000000     35.029564
   11572           0       289.413849  -1974.679443  -6875.000000     37.376766
   11573           0       289.413849  -1974.679443  -7124.999512     39.799946
   11574           0       289.413849  -1974.679443  -7374.999023     42.300716
   11575           0       289.413849  -1974.679443  -7625.000000     44.886574
   11576           0       289.413849  -1974.679443  -7875.000000     47.554176
   11577           0       289.413849  -1974.679443  -8125.000000     50.313007
   11578           0       289.413849  -1974.679443  -8375.000000     53.152935
   11579           0       289.413818  -1974.679443  -8625.000000     56.086494
   11580           0       289.413818  -1974.679443  -8875.000000     59.095192
   11581           0       289.413818  -1974.679443  -9125.000000     62.196789
   11582           0       289.413818  -1974.679443  -9375.000000     65.360977
   11583           0       289.413818  -1974.679443  -9625.000000     68.616493
   11584           0       289.413818  -1974.679443  -9875.000000     71.916840
   11585           0       289.413818  -1974.679443  -10124.99902     75.308716
   11586           0       289.413818  -1974.679443  -10374.99902     78.720734
   11587           0       289.413818  -1974.679443  -10625.00000     82.232399
   11588           0       289.413818  -1974.679443  -10875.00000     85.729568
   11589           0       289.413818  -1974.679443  -11125.00000     89.346741
   11590           0       289.413818  -1974.679443  -11375.00000     92.900726
   11591           0       289.413818  -1974.679443  -11625.00000     96.616524
   11592           0       289.413818  -1974.679443  -11875.00000    100.192314
   11593           0       289.413818  -1974.679443  -12125.00000    104.006866
   11594           0       289.413818  -1974.679443  -12374.99902    107.596542
   11595           0       289.413818  -1974.679443  -12625.00000    111.457634
   11596           0       289.413788  -1974.679443  -12874.99902    114.732361
   11597           0       289.413788  -1974.679443  -13124.99902    121.864799
   11598           0       289.413849  -1974.679443  -13374.99902    113.437981
   11599           0       403.420563  -1954.577026   -124.999985     15.377469
   11600           0       403.420563  -1954.577026   -375.000000     15.466659
   11601           0       403.420563  -1954.577026   -624.999939     13.599127
   11602           0       403.420563  -1954.577026   -875.000000     12.112990
   11603           0       403.420563  -1954.577026  -1125.000000     10.656849
   11604           0       403.420563  -1954.577026  -1375.000122      9.186203
   11605           0       403.420563  -1954.577026  -1625.000000      7.790740
   11606           0       403.420563  -1954.577026  -1874.999756      6.520956
   11607           0       403.420563  -1954.577026  -2125.000000      5.556136
   11608           0       403.420563  -1954.577026  -2375.000244      5.007905
   11609           0       403.420563  -1954.577026  -2624.999756      5.189719
   11610           0       403.420563  -1954.577026  -2874.999512      5.940244
   11611           0       403.420563  -1954.577026  -3124.999756      7.215937
   11612           0       403.420563  -1954.577026  -3375.000244      8.727564
   11613           0       403.420563  -1954.577026  -3625.000244     10.454856
   11614           0       403.420563  -1954.577026  -3875.000244     12.271605
   11615           0       403.420563  -1954.577026  -4125.000000     14.192945
   11616           0       403.420563  -1954.577026  -4375.000000     16.163076
   11617           0       403.420563  -1954.577026  -4625.000000     18.196560
   11618           0       403.420563  -1954.577026  -4875.000000     20.266108
   11619           0       403.420563  -1954.577026  -5124.999512     22.381102
   11620           0       403.420563  -1954.577026  -5374.999512     24.528217
   11621           0       403.420563  -1954.577026  -5625.000000     26.713018
   11622           0       403.420563  -1954.577026  -5875.000488     28.929832
   11623           0       403.420563  -1954.577026  -6125.000977     31.182692
   11624           0       403.420563  -1954.577026  -6375.000488     33.470238
   11625           0       403.420563  -1954.577026  -6625.000000     35.795876
   11626           0       403.420563  -1954.577026  -6875.000488     38.161335
   11627           0       403.420563  -1954.577026  -7124.999512     40.570045
   11628           0       403.420563  -1954.577026  -7374.999023     43.024231
   11629           0       403.420563  -1954.577026  -7625.000000     45.528233
   11630           0       403.420563  -1954.577026  -7875.000000     48.083363
   11631           0       403.420563  -1954.577026  -8124.999023     50.694172
   11632           0       403.420563  -1954.577026  -8374.999023     53.359783
   11633           0       403.420563  -1954.577026  -8625.000000     56.084946
   11634           0       403.420563  -1954.577026  -8875.000977     58.865768
   11635           0       403.420563  -1954.577026  -9125.000000     61.707428
   11636           0       403.420563  -1954.577026  -9374.999023     64.600166
   11637           0       403.420563  -1954.577026  -9625.000000     67.553947
   11638           0       403.420563  -1954.577026  -9875.000000     70.549843
   11639           0       403.420563  -1954.577026  -10125.00000     73.607353
   11640           0       403.420563  -1954.577026  -10375.00000     76.690323
   11641           0       403.420563  -1954.577026  -10624.99902     79.843811
   11642           0       403.420563  -1954.577026  -10875.00097     82.992996
   11643           0       403.420563  -1954.577026  -11125.00097     86.238007
   11644           0       403.420563  -1954.577026  -11375.00000     89.425560
   11645           0       403.420563  -1954.577026  -11625.00000     92.770378
   11646           0       403.420563  -1954.577026  -11875.00000     95.949928
   11647           0       403.420563  -1954.577026  -12125.00000     99.432739
   11648           0       403.420563  -1954.577026  -12374.99902    102.531113
   11649           0       403.420563  -1954.577026  -12625.00000    106.216484
   11650           0       403.420563  -1954.577026  -12874.99902    108.922028
   11651           0       403.420563  -1954.577026  -13124.99804    115.158768
   11652           0       403.420563  -1954.577026  -13374.99902    108.119560
   11653           0       515.668518  -1924.500244   -124.999985     19.706650
   11654           0       515.668518  -1924.500244   -374.999969     21.306849
   11655           0       515.668518  -1924.500244   -624.999939     18.838280
   11656           0       515.668518  -1924.500244   -874.999878     16.632210
   11657           0       515.668518  -1924.500244  -1124.999878     15.246114
   11658           0       515.668518  -1924.500244  -1375.000244     13.170755
   11659           0       515.668518  -1924.500244  -1625.000000     11.703017
   11660           0       515.668518  -1924.500244  -1874.999512     10.050165
   11661           0       515.668518  -1924.500244  -2125.000244      8.876302
   11662           0       515.668518  -1924.500244  -2375.000244      7.963968
   11663           0       515.668518  -1924.500244  -2624.999756      7.682715
   11664           0       515.668518  -1924.500244  -2874.999512      8.017892
   11665           0       515.668518  -1924.500244  -3124.999512      8.936304
   11666           0       515.668518  -1924.500244  -3375.000488     10.316946
   11667           0       515.668518  -1924.500244  -3625.000488     11.978716
   11668           0       515.668518  -1924.500244  -3875.000244     13.862529
   11669           0       515.668518  -1924.500244  -4125.000488     15.863870
   11670           0       515.668518  -1924.500244  -4375.000488     17.971735
   11671           0       515.668518  -1924.500244  -4625.000488     20.132751
   11672           0       515.668518  -1924.500244  -4874.999512     22.347002
   11673           0       515.668518  -1924.500244  -5124.999512     24.585068
   11674           0       515.668518  -1924.500244  -5374.999023     26.848328
   11675           0       515.668518  -1924.500244  -5625.000000     29.119301
   11676           0       515.668518  -1924.500244  -5875.000977     31.399599
   11677           0       515.668518  -1924.500244  -6125.000977     33.678703
   11678           0       515.668518  -1924.500244  -6375.000000     35.958546
   11679           0       515.668518  -1924.500244  -6625.000000     38.233196
   11680           0       515.668518  -1924.500244  -6875.000977     40.506870
   11681           0       515.668518  -1924.500244  -7124.999023     42.776386
   11682           0       515.668518  -1924.500244  -7374.998535     45.047386
   11683           0       515.668518  -1924.500244  -7625.000000     47.319466
   11684           0       515.668518  -1924.500244  -7875.000000     49.600140
   11685           0       515.668518  -1924.500244  -8124.999023     51.889179
   11686           0       515.668518  -1924.500244  -8374.999023     54.196560
   11687           0       515.668518  -1924.500244  -8625.000000     56.519825
   11688           0       515.668518  -1924.500244  -8875.000977     58.872971
   11689           0       515.668518  -1924.500244  -9125.000000     61.246639
   11690           0       515.668518  -1924.500244  -9374.998047     63.660767
   11691           0       515.668518  -1924.500244  -9625.000000     66.095581
   11692           0       515.668518  -1924.500244  -9875.000000     68.582375
   11693           0       515.668579  -1924.500244  -10125.00000     71.080963
   11694           0       515.668579  -1924.500244  -10375.00000     73.645569
   11695           0       515.668579  -1924.500244  -10624.99804     76.204071
   11696           0       515.668579  -1924.500244  -10875.00195     78.849091
   11697           0       515.668579  -1924.500244  -11125.00195     81.455772
   11698           0       515.668579  -1924.500244  -11375.00000     84.185883
   11699           0       515.668579  -1924.500244  -11625.00000     86.821770
   11700           0       515.668579  -1924.500244  -11875.00000     89.657417
   11701           0       515.668579  -1924.500244  -12125.00000     92.248070
   11702           0       515.668579  -1924.500244  -12375.00000     95.327271
   11703           0       515.668579  -1924.500244  -12625.00000     97.896523
   11704           0       515.668579  -1924.500244  -12874.99804     99.427063
   11705           0       515.668579  -1924.500244  -13124.99609    110.220047
   11706           0       515.668579  -1924.500244  -13374.99804     95.134911
   11707           0       627.916504  -1894.423340   -124.999992     25.253111
   11708           0       627.916504  -1894.423340   -375.000000     24.339077
   11709           0       627.916504  -1894.423340   -625.000000     21.316422
   11710           0       627.916504  -1894.423340   -874.999939     19.530241
   11711           0       627.916504  -1894.423340  -1125.000000     16.728977
   11712           0       627.916504  -1894.423340  -1375.000122     14.643148
   11713           0       627.916504  -1894.423340  -1625.000000     11.999575
   11714           0       627.916504  -1894.423340  -1874.999756      9.728411
   11715           0       627.916504  -1894.423340  -2125.000000      7.167792
   11716           0       627.916504  -1894.423340  -2375.000000      4.852257
   11717           0       627.916504  -1894.423340  -2625.000000      2.579255
   11718           0       627.916504  -1894.423340  -2874.999756      1.877913
   11719           0       627.916504  -1894.423340  -3125.000000      3.683626
   11720           0       627.916504  -1894.423340  -3375.000244      6.102202
   11721           0       627.916504  -1894.423340  -3625.000000      8.667547
   11722           0       627.916504  -1894.423340  -3875.000000     11.266085
   11723           0       627.916504  -1894.423340  -4125.000000     13.904346
   11724           0       627.916504  -1894.423340  -4375.000000     16.546009
   11725           0       627.916504  -1894.423340  -4625.000000     19.198988
   11726           0       627.916504  -1894.423340  -4875.000000     21.842306
   11727           0       627.916504  -1894.423340  -5125.000000     24.476416
   11728           0       627.916504  -1894.423340  -5375.000000     27.087662
   11729           0       627.916504  -1894.423340  -5625.000000     29.672220
   11730           0       627.916504  -1894.423340  -5875.000488     32.221466
   11731           0       627.916504  -1894.423340  -6125.000488     34.730953
   11732           0       627.916504  -1894.423340  -6375.000000     37.195332
   11733           0       627.916504  -1894.423340  -6625.000000     39.612141
   11734           0       627.916504  -1894.423340  -6875.000000     41.979591
   11735           0       627.916504  -1894.423340  -7124.999512     44.298935
   11736           0       627.916504  -1894.423340  -7374.999023     46.569817
   11737           0       627.916504  -1894.423340  -7625.000000     48.799030
   11738           0       627.916504  -1894.423340  -7875.000000     50.986576
   11739           0       627.916504  -1894.423340  -8125.000000     53.144489
   11740           0       627.916504  -1894.423340  -8375.000000     55.271244
   11741           0       627.916504  -1894.423340  -8625.000000     57.383892
   11742           0       627.916504  -1894.423340  -8875.000000     59.477463
   11743           0       627.916504  -1894.423340  -9125.000000     61.573261
   11744           0       627.916504  -1894.423340  -9375.000000     63.659180
   11745           0       627.916504  -1894.423340  -9625.000000     65.762535
   11746           0       627.916504  -1894.423340  -9875.000000     67.861107
   11747           0       627.916565  -1894.423340  -10124.99902     69.989418
   11748           0       627.916565  -1894.423340  -10374.99902     72.111862
   11749           0       627.916565  -1894.423340  -10625.00000     74.276138
   11750           0       627.916565  -1894.423340  -10875.00000     76.427597
   11751           0       627.916565  -1894.423340  -11125.00000     78.632950
   11752           0       627.916565  -1894.423340  -11375.00000     80.816322
   11753           0       627.916565  -1894.423340  -11625.00000     83.065536
   11754           0       627.916565  -1894.423340  -11875.00000     85.283157
   11755           0       627.916565  -1894.423340  -12125.00000     87.565750
   11756           0       627.916565  -1894.423340  -12374.99902     89.874947
   11757           0       627.916565  -1894.423340  -12625.00000     92.079224
   11758           0       627.916565  -1894.423340  -12874.99902     94.232819
   11759           0       627.916565  -1894.423340  -13124.99902     99.496727
   11760           0       627.916565  -1894.423340  -13374.99902     91.004372
   11761           0       736.700439  -1854.829224   -124.999985     28.789953
   11762           0       736.700439  -1854.829224   -375.000000     28.291048
   11763           0       736.700439  -1854.829224   -624.999939     24.786860
   11764           0       736.700439  -1854.829224   -875.000000     22.540091
   11765           0       736.700439  -1854.829224  -1125.000000     19.593527
   11766           0       736.700439  -1854.829224  -1375.000122     17.112631
   11767           0       736.700439  -1854.829224  -1625.000000     14.225645
   11768           0       736.700439  -1854.829224  -1874.999756     11.626259
   11769           0       736.700439  -1854.829224  -2125.000000      8.793726
   11770           0       736.700439  -1854.829224  -2375.000244      6.174005
   11771           0       736.700439  -1854.829224  -2624.999756      3.593567
   11772           0       736.700439  -1854.829224  -2874.999512      2.154613
   11773           0       736.700439  -1854.829224  -3124.999756      3.563164
   11774           0       736.700439  -1854.829224  -3375.000244      6.105011
   11775           0       736.700439  -1854.829224  -3625.000244      8.898169
   11776           0       736.700439  -1854.829224  -3875.000244     11.725762
   11777           0       736.700439  -1854.829224  -4125.000000     14.601333
   11778           0       736.700439  -1854.829224  -4375.000000     17.460541
   11779           0       736.700439  -1854.829224  -4625.000000     20.323832
   11780           0       736.700439  -1854.829224  -4875.000000     23.152391
   11781           0       736.700439  -1854.829224  -5124.999512     25.955486
   11782           0       736.700439  -1854.829224  -5374.999512     28.706999
   11783           0       736.700439  -1854.829224  -5625.000000     31.408636
   11784           0       736.700439  -1854.829224  -5875.000488     34.042812
   11785           0       736.700439  -1854.829224  -6125.000977     36.608353
   11786           0       736.700439  -1854.829224  -6375.000488     39.094421
   11787           0       736.700439  -1854.829224  -6625.000000     41.499584
   11788           0       736.700439  -1854.829224  -6875.000488     43.819862
   11789           0       736.700439  -1854.829224  -7124.999512     46.055248
   11790           0       736.700439  -1854.829224  -7374.999023     48.207047
   11791           0       736.700439  -1854.829224  -7625.000000     50.278023
   11792           0       736.700439  -1854.829224  -7875.000000     52.274208
   11793           0       736.700439  -1854.829224  -8124.999023     54.200237
   11794           0       736.700439  -1854.829224  -8374.999023     56.065964
   11795           0       736.700439  -1854.829224  -8625.000000     57.876671
   11796           0       736.700439  -1854.829224  -8875.000977     59.645569
   11797           0       736.700439  -1854.829224  -9125.000000     61.376431
   11798           0       736.700439  -1854.829224  -9374.999023     63.083370
   11799           0       736.700439  -1854.829224  -9625.000000     64.769051
   11800           0       736.700439  -1854.829224  -9875.000000     66.447014
   11801           0       736.700439  -1854.829224  -10125.00000     68.117882
   11802           0       736.700439  -1854.829224  -10375.00000     69.791046
   11803           0       736.700439  -1854.829224  -10624.99902     71.472916
   11804           0       736.700439  -1854.829224  -10875.00097     73.156738
   11805           0       736.700439  -1854.829224  -11125.00097     74.870918
   11806           0       736.700439  -1854.829224  -11375.00000     76.571190
   11807           0       736.700439  -1854.829224  -11625.00000     78.342079
   11808           0       736.700439  -1854.829224  -11875.00000     80.045746
   11809           0       736.700439  -1854.829224  -12125.00000     81.916214
   11810           0       736.700439  -1854.829224  -12374.99902     83.588829
   11811           0       736.700439  -1854.829224  -12625.00000     85.576996
   11812           0       736.700439  -1854.829224  -12874.99902     87.176071
   11813           0       736.700439  -1854.829224  -13124.99804     90.595093
   11814           0       736.700439  -1854.829224  -13374.99902     85.473099
   11815           0       842.020264  -1805.717773   -124.999985     30.134733
   11816           0       842.020264  -1805.717773   -374.999969     33.172676
   11817           0       842.020264  -1805.717773   -624.999939     28.778709
   11818           0       842.020264  -1805.717773   -874.999878     25.617199
   11819           0       842.020264  -1805.717773  -1124.999878     23.261641
   11820           0       842.020264  -1805.717773  -1375.000244     19.890871
   11821           0       842.020264  -1805.717773  -1625.000000     17.228025
   11822           0       842.020264  -1805.717773  -1874.999512     14.028772
   11823           0       842.020264  -1805.717773  -2125.000244     11.203334
   11824           0       842.020264  -1805.717773  -2375.000244      8.139701
   11825           0       842.020264  -1805.717773  -2624.999756      5.418690
   11826           0       842.020264  -1805.717773  -2874.999512      3.213440
   11827           0       842.020264  -1805.717773  -3124.999512      3.396865
   11828           0       842.020264  -1805.717773  -3375.000488      5.750568
   11829           0       842.020264  -1805.717773  -3625.000488      8.610321
   11830           0       842.020264  -1805.717773  -3875.000244     11.661324
   11831           0       842.020264  -1805.717773  -4125.000488     14.716289
   11832           0       842.020264  -1805.717773  -4375.000488     17.799017
   11833           0       842.020264  -1805.717773  -4625.000488     20.834141
   11834           0       842.020264  -1805.717773  -4874.999512     23.841188
   11835           0       842.020264  -1805.717773  -5124.999512     26.774464
   11836           0       842.020264  -1805.717773  -5374.999023     29.642477
   11837           0       842.020264  -1805.717773  -5625.000000     32.415104
   11838           0       842.020264  -1805.717773  -5875.000977     35.095192
   11839           0       842.020264  -1805.717773  -6125.000977     37.663246
   11840           0       842.020264  -1805.717773  -6375.000000     40.120594
   11841           0       842.020264  -1805.717773  -6625.000000     42.456249
   11842           0       842.020264  -1805.717773  -6875.000977     44.673157
   11843           0       842.020264  -1805.717773  -7124.999023     46.767143
   11844           0       842.020264  -1805.717773  -7374.998535     48.743042
   11845           0       842.020264  -1805.717773  -7625.000000     50.603432
   11846           0       842.020264  -1805.717773  -7875.000000     52.355202
   11847           0       842.020264  -1805.717773  -8124.999023     54.005844
   11848           0       842.020264  -1805.717773  -8374.999023     55.564182
   11849           0       842.020264  -1805.717773  -8625.000000     57.041142
   11850           0       842.020264  -1805.717773  -8875.000977     58.447388
   11851           0       842.020264  -1805.717773  -9125.000000     59.794701
   11852           0       842.020264  -1805.717773  -9374.998047     61.094780
   11853           0       842.020264  -1805.717773  -9625.000000     62.358856
   11854           0       842.020264  -1805.717773  -9875.000000     63.600231
   11855           0       842.020264  -1805.717773  -10125.00000     64.824371
   11856           0       842.020264  -1805.717773  -10375.00000     66.048660
   11857           0       842.020264  -1805.717773  -10624.99804     67.269958
   11858           0       842.020264  -1805.717773  -10875.00195     68.510536
   11859           0       842.020264  -1805.717773  -11125.00195     69.754898
   11860           0       842.020264  -1805.717773  -11375.00000     71.036240
   11861           0       842.020264  -1805.717773  -11625.00000     72.319504
   11862           0       842.020264  -1805.717773  -11875.00000     73.665108
   11863           0       842.020264  -1805.717773  -12125.00000     74.958221
   11864           0       842.020264  -1805.717773  -12375.00000     76.475227
   11865           0       842.020264  -1805.717773  -12625.00000     77.812416
   11866           0       842.020264  -1805.717773  -12874.99804     78.164902
   11867           0       842.020264  -1805.717773  -13124.99609     85.671791
   11868           0       842.020264  -1805.717773  -13374.99804     73.967484
   11869           0       947.340210  -1756.606201   -124.999992     34.010620
   11870           0       947.340210  -1756.606201   -375.000000     34.768299
   11871           0       947.340210  -1756.606201   -625.000000     30.246841
   11872           0       947.340210  -1756.606201   -874.999939     27.941669
   11873           0       947.340210  -1756.606201  -1125.000000     24.534132
   11874           0       947.340210  -1756.606201  -1375.000122     21.796871
   11875           0       947.340210  -1756.606201  -1625.000000     18.668612
   11876           0       947.340210  -1756.606201  -1874.999756     15.949594
   11877           0       947.340210  -1756.606201  -2125.000000     13.243598
   11878           0       947.340210  -1756.606201  -2375.000000     11.060406
   11879           0       947.340210  -1756.606201  -2625.000000      9.553836
   11880           0       947.340088  -1756.606201  -2874.999756      9.189276
   11881           0       947.340088  -1756.606201  -3125.000000     10.135187
   11882           0       947.340088  -1756.606201  -3375.000244     12.046020
   11883           0       947.340088  -1756.606201  -3625.000000     14.609791
   11884           0       947.340088  -1756.606201  -3875.000000     17.474445
   11885           0       947.340088  -1756.606201  -4125.000000     20.539593
   11886           0       947.340088  -1756.606201  -4375.000000     23.658499
   11887           0       947.340088  -1756.606201  -4625.000000     26.804117
   11888           0       947.340088  -1756.606445  -4875.000000     29.901731
   11889           0       947.340088  -1756.606445  -5125.000000     32.936260
   11890           0       947.340088  -1756.606445  -5375.000000     35.863064
   11891           0       947.340088  -1756.606445  -5625.000000     38.669838
   11892           0       947.340088  -1756.606445  -5875.000488     41.329712
   11893           0       947.340088  -1756.606445  -6125.000488     43.833969
   11894           0       947.340088  -1756.606445  -6375.000000     46.167927
   11895           0       947.340088  -1756.606445  -6625.000000     48.328140
   11896           0       947.340088  -1756.606445  -6875.000000     50.310444
   11897           0       947.340088  -1756.606445  -7124.999512     52.117718
   11898           0       947.340088  -1756.606445  -7374.999023     53.752953
   11899           0       947.340088  -1756.606445  -7625.000000     55.226185
   11900           0       947.340088  -1756.606445  -7875.000000     56.545994
   11901           0       947.340088  -1756.606445  -8125.000000     57.728214
   11902           0       947.340088  -1756.606445  -8375.000000     58.784966
   11903           0       947.340088  -1756.606445  -8625.000000     59.736317
   11904           0       947.340088  -1756.606445  -8875.000000     60.596462
   11905           0       947.340088  -1756.606445  -9125.000000     61.386944
   11906           0       947.340088  -1756.606445  -9375.000000     62.121376
   11907           0       947.340088  -1756.606445  -9625.000000     62.821152
   11908           0       947.340088  -1756.606445  -9875.000000     63.498180
   11909           0       947.340088  -1756.606445  -10124.99902     64.169487
   11910           0       947.340088  -1756.606445  -10374.99902     64.845299
   11911           0       947.340088  -1756.606445  -10625.00000     65.536194
   11912           0       947.340088  -1756.606445  -10875.00000     66.252136
   11913           0       947.340088  -1756.606445  -11125.00000     66.991570
   11914           0       947.340088  -1756.606445  -11375.00000     67.776375
   11915           0       947.340088  -1756.606445  -11625.00000     68.576988
   11916           0       947.340088  -1756.606445  -11875.00000     69.453278
   11917           0       947.340088  -1756.606445  -12125.00000     70.302086
   11918           0       947.340088  -1756.606445  -12374.99902     71.350182
   11919           0       947.340088  -1756.606445  -12625.00000     72.110939
   11920           0       947.340088  -1756.606445  -12874.99902     73.185127
   11921           0       947.340088  -1756.606445  -13124.99902     76.449539
   11922           0       947.340088  -1756.606445  -13374.99902     68.928749
   11923           0      1047.595947  -1698.723511   -124.999985     35.311504
   11924           0      1047.595947  -1698.723511   -375.000000     34.150246
   11925           0      1047.595947  -1698.723511   -624.999939     30.234503
   11926           0      1047.595947  -1698.723511   -875.000000     28.203333
   11927           0      1047.595947  -1698.723511  -1125.000000     24.803333
   11928           0      1047.595947  -1698.723511  -1375.000122     22.494184
   11929           0      1047.595947  -1698.723511  -1625.000000     19.593449
   11930           0      1047.595947  -1698.723511  -1874.999756     17.462139
   11931           0      1047.595947  -1698.723511  -2125.000000     15.329370
   11932           0      1047.595947  -1698.723511  -2375.000244     14.080392
   11933           0      1047.595947  -1698.723511  -2624.999756     13.456128
   11934           0      1047.595947  -1698.723511  -2874.999512     13.918099
   11935           0      1047.595947  -1698.723511  -3124.999756     15.200686
   11936           0      1047.595947  -1698.723511  -3375.000244     17.228777
   11937           0      1047.595947  -1698.723511  -3625.000244     19.718992
   11938           0      1047.595947  -1698.723511  -3875.000244     22.520498
   11939           0      1047.595947  -1698.723511  -4125.000000     25.493547
   11940           0      1047.595947  -1698.723511  -4375.000000     28.544127
   11941           0      1047.595947  -1698.723511  -4625.000000     31.606697
   11942           0      1047.595947  -1698.723511  -4875.000000     34.621616
   11943           0      1047.595947  -1698.723511  -5124.999512     37.551701
   11944           0      1047.595947  -1698.723511  -5374.999512     40.357464
   11945           0      1047.595947  -1698.723511  -5625.000000     43.015327
   11946           0      1047.595947  -1698.723511  -5875.000488     45.500561
   11947           0      1047.595947  -1698.723511  -6125.000977     47.799347
   11948           0      1047.595947  -1698.723511  -6375.000488     49.899391
   11949           0      1047.595947  -1698.723511  -6625.000000     51.794960
   11950           0      1047.595947  -1698.723511  -6875.000488     53.485771
   11951           0      1047.595947  -1698.723511  -7124.999512     54.973591
   11952           0      1047.595947  -1698.723511  -7374.999023     56.267200
   11953           0      1047.595947  -1698.723511  -7625.000000     57.375793
   11954           0      1047.595947  -1698.723511  -7875.000000     58.316322
   11955           0      1047.595947  -1698.723511  -8124.999023     59.102684
   11956           0      1047.595947  -1698.723511  -8374.999023     59.758556
   11957           0      1047.595947  -1698.723511  -8625.000000     60.299309
   11958           0      1047.595947  -1698.723511  -8875.000977     60.755108
   11959           0      1047.595947  -1698.723511  -9125.000000     61.138004
   11960           0      1047.595947  -1698.723511  -9374.999023     61.481590
   11961           0      1047.595947  -1698.723511  -9625.000000     61.791977
   11962           0      1047.595947  -1698.723511  -9875.000000     62.105980
   11963           0      1047.595947  -1698.723511  -10125.00000     62.417309
   11964           0      1047.595947  -1698.723511  -10375.00000     62.766197
   11965           0      1047.595947  -1698.723511  -10624.99902     63.133461
   11966           0      1047.595947  -1698.723511  -10875.00097     63.561550
   11967           0      1047.595947  -1698.723511  -11125.00097     64.017563
   11968           0      1047.595947  -1698.723511  -11375.00000     64.550659
   11969           0      1047.595947  -1698.723511  -11625.00000     65.112846
   11970           0      1047.595947  -1698.723511  -11875.00000     65.758942
   11971           0      1047.595947  -1698.723511  -12125.00000     66.438911
   11972           0      1047.595947  -1698.723511  -12374.99902     67.212914
   11973           0      1047.595947  -1698.723511  -12625.00000     67.911530
   11974           0      1047.595947  -1698.723511  -12874.99902     69.013733
   11975           0      1047.595947  -1698.723511  -13124.99804     70.384903
   11976           0      1047.595947  -1698.723511  -13374.99902     66.832275
   11977           0      1142.787720  -1632.069580   -124.999985     29.789494
   11978           0      1142.787720  -1632.069580   -374.999969     32.693836
   11979           0      1142.787720  -1632.069580   -624.999939     28.613213
   11980           0      1142.787720  -1632.069580   -874.999878     26.031857
   11981           0      1142.787720  -1632.069580  -1124.999878     24.003180
   11982           0      1142.787720  -1632.069580  -1375.000244     21.270971
   11983           0      1142.787720  -1632.069580  -1625.000000     19.288214
   11984           0      1142.787720  -1632.069580  -1874.999512     17.131786
   11985           0      1142.787720  -1632.069580  -2125.000244     15.682555
   11986           0      1142.787720  -1632.069580  -2375.000244     14.649492
   11987           0      1142.787720  -1632.069580  -2624.999756     14.520898
   11988           0      1142.787720  -1632.069580  -2874.999512     15.194635
   11989           0      1142.787720  -1632.069580  -3124.999512     16.671083
   11990           0      1142.787720  -1632.069580  -3375.000488     18.752985
   11991           0      1142.787720  -1632.069580  -3625.000488     21.239367
   11992           0      1142.787720  -1632.069580  -3875.000244     23.998516
   11993           0      1142.787720  -1632.069580  -4125.000488     26.880030
   11994           0      1142.787720  -1632.069580  -4375.000488     29.822630
   11995           0      1142.787720  -1632.069580  -4625.000488     32.732246
   11996           0      1142.787720  -1632.069580  -4874.999512     35.577682
   11997           0      1142.787720  -1632.069580  -5124.999512     38.299736
   11998           0      1142.787720  -1632.069580  -5374.999023     40.881294
   11999           0      1142.787720  -1632.069580  -5625.000000     43.285480
   12000           0      1142.787720  -1632.069580  -5875.000977     45.504417
   12001           0      1142.787720  -1632.069580  -6125.000977     47.517860
   12002           0      1142.787720  -1632.069580  -6375.000000     49.325191
   12003           0      1142.787720  -1632.069580  -6625.000000     50.919758
   12004           0      1142.787842  -1632.069580  -6875.000977     52.307491
   12005           0      1142.787842  -1632.069580  -7124.999023     53.492855
   12006           0      1142.787842  -1632.069580  -7374.998535     54.487366
   12007           0      1142.787842  -1632.069580  -7625.000000     55.305653
   12008           0      1142.787842  -1632.069580  -7875.000000     55.963348
   12009           0      1142.787842  -1632.069580  -8124.999023     56.483868
   12010           0      1142.787842  -1632.069580  -8374.999023     56.884769
   12011           0      1142.787842  -1632.069580  -8625.000000     57.196918
   12012           0      1142.787842  -1632.069580  -8875.000977     57.436905
   12013           0      1142.787842  -1632.069580  -9125.000000     57.640110
   12014           0      1142.787842  -1632.069580  -9374.998047     57.818462
   12015           0      1142.787842  -1632.069580  -9625.000000     58.009544
   12016           0      1142.787842  -1632.069580  -9875.000000     58.216328
   12017           0      1142.787842  -1632.069580  -10125.00000     58.475513
   12018           0      1142.787842  -1632.069580  -10375.00000     58.778103
   12019           0      1142.787842  -1632.069580  -10624.99804     59.161030
   12020           0      1142.787842  -1632.069580  -10875.00195     59.599140
   12021           0      1142.787842  -1632.069580  -11125.00195     60.133614
   12022           0      1142.787842  -1632.069580  -11375.00000     60.720135
   12023           0      1142.787842  -1632.069580  -11625.00000     61.413177
   12024           0      1142.787842  -1632.069580  -11875.00000     62.146225
   12025           0      1142.787842  -1632.069580  -12125.00000     62.956619
   12026           0      1142.787842  -1632.069580  -12375.00000     63.909801
   12027           0      1142.787842  -1632.069580  -12625.00000     64.814827
   12028           0      1142.787842  -1632.069580  -12874.99804     64.947464
   12029           0      1142.787842  -1632.069580  -13124.99609     70.752197
   12030           0      1142.787720  -1632.069580  -13374.99804     61.439789
   12031           0      1237.979370  -1565.415527   -124.999992     26.224241
   12032           0      1237.979370  -1565.415527   -375.000000     28.825356
   12033           0      1237.979370  -1565.415527   -625.000000     25.375048
   12034           0      1237.979370  -1565.415527   -874.999939     23.983168
   12035           0      1237.979370  -1565.415527  -1125.000000     22.368158
   12036           0      1237.979370  -1565.415527  -1375.000122     21.013166
   12037           0      1237.979370  -1565.415527  -1625.000000     20.020632
   12038           0      1237.979370  -1565.415527  -1874.999756     19.470848
   12039           0      1237.979370  -1565.415527  -2125.000000     19.521379
   12040           0      1237.979370  -1565.415527  -2375.000000     20.156061
   12041           0      1237.979370  -1565.415527  -2625.000000     21.460430
   12042           0      1237.979370  -1565.415527  -2874.999756     23.278370
   12043           0      1237.979370  -1565.415527  -3125.000000     25.595167
   12044           0      1237.979370  -1565.415527  -3375.000244     28.219982
   12045           0      1237.979370  -1565.415527  -3625.000000     31.108389
   12046           0      1237.979370  -1565.415527  -3875.000000     34.107738
   12047           0      1237.979370  -1565.415527  -4125.000000     37.177116
   12048           0      1237.979370  -1565.415527  -4375.000000     40.209255
   12049           0      1237.979370  -1565.415527  -4625.000000     43.172523
   12050           0      1237.979370  -1565.415527  -4875.000000     45.995480
   12051           0      1237.979370  -1565.415527  -5125.000000     48.656483
   12052           0      1237.979370  -1565.415527  -5375.000000     51.110317
   12053           0      1237.979370  -1565.415527  -5625.000000     53.345257
   12054           0      1237.979370  -1565.415527  -5875.000488     55.335613
   12055           0      1237.979370  -1565.415527  -6125.000488     57.078300
   12056           0      1237.979370  -1565.415527  -6375.000000     58.562332
   12057           0      1237.979370  -1565.415527  -6625.000000     59.792252
   12058           0      1237.979370  -1565.415527  -6875.000000     60.768898
   12059           0      1237.979492  -1565.415527  -7124.999512     61.503498
   12060           0      1237.979492  -1565.415527  -7374.999023     62.007015
   12061           0      1237.979492  -1565.415527  -7625.000000     62.296700
   12062           0      1237.979492  -1565.415527  -7875.000000     62.393085
   12063           0      1237.979492  -1565.415527  -8125.000000     62.318916
   12064           0      1237.979492  -1565.415527  -8375.000000     62.103920
   12065           0      1237.979492  -1565.415527  -8625.000000     61.775078
   12066           0      1237.979492  -1565.415527  -8875.000000     61.370583
   12067           0      1237.979492  -1565.415527  -9125.000000     60.918667
   12068           0      1237.979492  -1565.415527  -9375.000000     60.463512
   12069           0      1237.979492  -1565.415527  -9625.000000     60.028900
   12070           0      1237.979492  -1565.415527  -9875.000000     59.662228
   12071           0      1237.979492  -1565.415527  -10124.99902     59.373600
   12072           0      1237.979492  -1565.415527  -10374.99902     59.210255
   12073           0      1237.979492  -1565.415527  -10625.00000     59.160744
   12074           0      1237.979492  -1565.415527  -10875.00000     59.271008
   12075           0      1237.979492  -1565.415527  -11125.00000     59.501968
   12076           0      1237.979492  -1565.415527  -11375.00000     59.903400
   12077           0      1237.979492  -1565.415527  -11625.00000     60.407806
   12078           0      1237.979492  -1565.415527  -11875.00000     61.075096
   12079           0      1237.979492  -1565.415527  -12125.00000     61.809532
   12080           0      1237.979492  -1565.415527  -12374.99902     62.739857
   12081           0      1237.979492  -1565.415527  -12625.00000     63.580860
   12082           0      1237.979492  -1565.415527  -12874.99902     64.587463
   12083           0      1237.979492  -1565.415527  -13124.99902     67.609436
   12084           0      1237.979370  -1565.415527  -13374.99902     61.410332
   12085           0      1326.660889  -1491.003052   -124.999985     22.439095
   12086           0      1326.660889  -1491.003052   -375.000000     21.853542
   12087           0      1326.660889  -1491.003052   -624.999939     20.273424
   12088           0      1326.660889  -1491.003052   -875.000000     20.555519
   12089           0      1326.660889  -1491.003052  -1125.000000     19.681366
   12090           0      1326.660889  -1491.003052  -1375.000122     20.016523
   12091           0      1326.660889  -1491.003052  -1625.000000     20.102686
   12092           0      1326.660889  -1491.003052  -1874.999756     21.006683
   12093           0      1326.660889  -1491.003052  -2125.000000     22.061510
   12094           0      1326.660889  -1491.003052  -2375.000244     23.721029
   12095           0      1326.660889  -1491.003052  -2624.999756     25.630157
   12096           0      1326.660889  -1491.003052  -2874.999512     27.942154
   12097           0      1326.660889  -1491.003052  -3124.999756     30.439056
   12098           0      1326.660889  -1491.003052  -3375.000244     33.149239
   12099           0      1326.660889  -1491.003052  -3625.000244     35.927982
   12100           0      1326.660889  -1491.003052  -3875.000244     38.760250
   12101           0      1326.660889  -1491.003052  -4125.000000     41.548363
   12102           0      1326.660889  -1491.003052  -4375.000000     44.267673
   12103           0      1326.660889  -1491.003052  -4625.000000     46.853783
   12104           0      1326.660889  -1491.003052  -4875.000000     49.286057
   12105           0      1326.660889  -1491.003052  -5124.999512     51.524075
   12106           0      1326.660889  -1491.003052  -5374.999512     53.555725
   12107           0      1326.660889  -1491.003052  -5625.000000     55.358479
   12108           0      1326.660889  -1491.003052  -5875.000488     56.928871
   12109           0      1326.660889  -1491.003052  -6125.000977     58.257107
   12110           0      1326.660889  -1491.003052  -6375.000488     59.347469
   12111           0      1326.660889  -1491.003052  -6625.000000     60.199146
   12112           0      1326.660889  -1491.003052  -6875.000488     60.824165
   12113           0      1326.660889  -1491.003052  -7124.999512     61.229462
   12114           0      1326.660889  -1491.003052  -7374.999023     61.431652
   12115           0      1326.660889  -1491.003052  -7625.000000     61.446400
   12116           0      1326.660889  -1491.003052  -7875.000000     61.295856
   12117           0      1326.660889  -1491.003052  -8124.999023     61.003387
   12118           0      1326.660889  -1491.003052  -8374.999023     60.597218
   12119           0      1326.660889  -1491.003052  -8625.000000     60.107635
   12120           0      1326.660889  -1491.003052  -8875.000977     59.571331
   12121           0      1326.660889  -1491.003052  -9125.000000     59.022724
   12122           0      1326.660889  -1491.003052  -9374.999023     58.502445
   12123           0      1326.660889  -1491.003052  -9625.000000     58.046917
   12124           0      1326.660889  -1491.003052  -9875.000000     57.697231
   12125           0      1326.660889  -1491.003052  -10125.00000     57.480469
   12126           0      1326.660889  -1491.003052  -10375.00000     57.431103
   12127           0      1326.660889  -1491.003052  -10624.99902     57.559757
   12128           0      1326.660889  -1491.003052  -10875.00097     57.888767
   12129           0      1326.660889  -1491.003052  -11125.00097     58.400814
   12130           0      1326.660889  -1491.003052  -11375.00000     59.121548
   12131           0      1326.660889  -1491.003052  -11625.00000     59.985012
   12132           0      1326.660889  -1491.003052  -11875.00000     61.061832
   12133           0      1326.660889  -1491.003052  -12125.00000     62.196388
   12134           0      1326.660889  -1491.003052  -12374.99902     63.627262
   12135           0      1326.660889  -1491.003052  -12625.00000     64.774284
   12136           0      1326.661011  -1491.003052  -12874.99902     66.869614
   12137           0      1326.661011  -1491.002930  -13124.99804     68.551163
   12138           0      1326.661011  -1491.002930  -13374.99902     66.364052
   12139           0      1408.832275  -1408.831787   -124.999985     15.639426
   12140           0      1408.832275  -1408.831787   -374.999969     16.448164
   12141           0      1408.832275  -1408.831787   -624.999939     15.989533
   12142           0      1408.832275  -1408.831787   -874.999878     17.166901
   12143           0      1408.832275  -1408.831787  -1124.999878     17.483065
   12144           0      1408.832275  -1408.831787  -1375.000244     18.390299
   12145           0      1408.832275  -1408.831787  -1625.000000     19.341715
   12146           0      1408.832275  -1408.831787  -1874.999512     20.606852
   12147           0      1408.832275  -1408.831787  -2125.000244     22.111124
   12148           0      1408.832275  -1408.831787  -2375.000244     23.872660
   12149           0      1408.832275  -1408.831787  -2624.999756     25.855715
   12150           0      1408.832275  -1408.831787  -2874.999512     27.994818
   12151           0      1408.832275  -1408.831787  -3124.999512     30.250912
   12152           0      1408.832275  -1408.831787  -3375.000488     32.543098
   12153           0      1408.832275  -1408.831787  -3625.000488     34.835114
   12154           0      1408.832275  -1408.831787  -3875.000244     37.061241
   12155           0      1408.832275  -1408.831787  -4125.000488     39.194660
   12156           0      1408.832275  -1408.831787  -4375.000488     41.191486
   12157           0      1408.832275  -1408.831787  -4625.000488     43.035820
   12158           0      1408.832275  -1408.831787  -4874.999512     44.702663
   12159           0      1408.832275  -1408.831787  -5124.999512     46.186104
   12160           0      1408.832275  -1408.831787  -5374.999023     47.475922
   12161           0      1408.832275  -1408.831787  -5625.000000     48.572773
   12162           0      1408.832275  -1408.831787  -5875.000977     49.477592
   12163           0      1408.832031  -1408.831787  -6125.000977     50.197033
   12164           0      1408.832031  -1408.831787  -6375.000000     50.739128
   12165           0      1408.832031  -1408.831787  -6625.000000     51.116173
   12166           0      1408.832031  -1408.831787  -6875.000977     51.341320
   12167           0      1408.832031  -1408.831787  -7124.999023     51.432068
   12168           0      1408.832031  -1408.831787  -7374.998535     51.406395
   12169           0      1408.832031  -1408.831787  -7625.000000     51.287365
   12170           0      1408.832031  -1408.831787  -7875.000000     51.097198
   12171           0      1408.832031  -1408.831787  -8124.999023     50.865749
   12172           0      1408.832031  -1408.831787  -8374.999023     50.618408
   12173           0      1408.832031  -1408.831787  -8625.000000     50.393127
   12174           0      1408.832031  -1408.831787  -8875.000977     50.216595
   12175           0      1408.832031  -1408.831787  -9125.000000     50.132301
   12176           0      1408.832031  -1408.831787  -9374.998047     50.166809
   12177           0      1408.832031  -1408.831787  -9625.000000     50.363266
   12178           0      1408.832031  -1408.831787  -9875.000000     50.741951
   12179           0      1408.832031  -1408.831787  -10125.00000     51.335575
   12180           0      1408.832031  -1408.831787  -10375.00000     52.154400
   12181           0      1408.832031  -1408.831787  -10624.99804     53.208317
   12182           0      1408.832031  -1408.831787  -10875.00195     54.498760
   12183           0      1408.832031  -1408.831787  -11125.00195     56.001614
   12184           0      1408.832031  -1408.831787  -11375.00000     57.727104
   12185           0      1408.832031  -1408.831787  -11625.00000     59.604568
   12186           0      1408.832031  -1408.831787  -11875.00000     61.696243
   12187           0      1408.832031  -1408.831787  -12125.00000     63.801941
   12188           0      1408.832031  -1408.831787  -12375.00000     66.307266
   12189           0      1408.832031  -1408.831787  -12625.00000     68.495781
   12190           0      1408.832031  -1408.831787  -12874.99804     70.261620
   12191           0      1408.832153  -1408.831787  -13124.99609     77.962654
   12192           0      1408.832153  -1408.831787  -13374.99804     68.504662
   12193           0      1491.003296  -1326.660645   -124.999992     18.289511
   12194           0      1491.003296  -1326.660645   -375.000000     19.506485
   12195           0      1491.003296  -1326.660645   -625.000000     20.021671
   12196           0      1491.003296  -1326.660645   -874.999939     20.337095
   12197           0      1491.003296  -1326.660645  -1125.000000     21.367287
   12198           0      1491.003296  -1326.660645  -1375.000122     22.259583
   12199           0      1491.003296  -1326.660645  -1625.000000     23.665030
   12200           0      1491.003296  -1326.660645  -1874.999756     25.166382
   12201           0      1491.003296  -1326.660645  -2125.000000     27.034386
   12202           0      1491.003296  -1326.660645  -2375.000000     29.042583
   12203           0      1491.003296  -1326.660645  -2625.000000     31.261837
   12204           0      1491.003296  -1326.660645  -2874.999756     33.550697
   12205           0      1491.003296  -1326.660645  -3125.000000     35.891773
   12206           0      1491.003296  -1326.660645  -3375.000244     38.194530
   12207           0      1491.003296  -1326.660645  -3625.000000     40.421177
   12208           0      1491.003296  -1326.660645  -3875.000000     42.519646
   12209           0      1491.003296  -1326.660645  -4125.000000     44.459778
   12210           0      1491.003296  -1326.660645  -4375.000000     46.217045
   12211           0      1491.003296  -1326.660645  -4625.000000     47.775143
   12212           0      1491.003296  -1326.660645  -4875.000000     49.126743
   12213           0      1491.003296  -1326.660645  -5125.000000     50.267895
   12214           0      1491.003296  -1326.660645  -5375.000000     51.200520
   12215           0      1491.003296  -1326.660645  -5625.000000     51.930470
   12216           0      1491.003296  -1326.660645  -5875.000488     52.464691
   12217           0      1491.003296  -1326.660645  -6125.000488     52.815914
   12218           0      1491.003296  -1326.660645  -6375.000000     52.995434
   12219           0      1491.003296  -1326.660645  -6625.000000     53.021664
   12220           0      1491.003296  -1326.660645  -6875.000000     52.909492
   12221           0      1491.003296  -1326.660645  -7124.999512     52.682114
   12222           0      1491.003296  -1326.660645  -7374.999023     52.360699
   12223           0      1491.003296  -1326.660645  -7625.000000     51.971775
   12224           0      1491.003296  -1326.660645  -7875.000000     51.543503
   12225           0      1491.003296  -1326.660645  -8125.000000     51.105854
   12226           0      1491.003296  -1326.660645  -8375.000000     50.694984
   12227           0      1491.003296  -1326.660645  -8625.000000     50.342487
   12228           0      1491.003296  -1326.660645  -8875.000000     50.091511
   12229           0      1491.003296  -1326.660645  -9125.000000     49.972965
   12230           0      1491.003296  -1326.660645  -9375.000000     50.035095
   12231           0      1491.003296  -1326.660645  -9625.000000     50.300526
   12232           0      1491.003296  -1326.660645  -9875.000000     50.818275
   12233           0      1491.003296  -1326.660645  -10124.99902     51.595211
   12234           0      1491.003296  -1326.660645  -10374.99902     52.672356
   12235           0      1491.003296  -1326.660645  -10625.00000     54.036465
   12236           0      1491.003296  -1326.660645  -10875.00000     55.707790
   12237           0      1491.003296  -1326.660645  -11125.00000     57.665558
   12238           0      1491.003296  -1326.660645  -11375.00000     59.883633
   12239           0      1491.003296  -1326.660645  -11625.00000     62.384346
   12240           0      1491.003296  -1326.660645  -11875.00000     65.030174
   12241           0      1491.003296  -1326.660645  -12125.00000     68.000725
   12242           0      1491.003296  -1326.660645  -12374.99902     70.925766
   12243           0      1491.003296  -1326.660645  -12625.00000     74.319382
   12244           0      1491.003296  -1326.660645  -12874.99902     77.015160
   12245           0      1491.003296  -1326.660645  -13124.99902     83.202919
   12246           0      1491.003296  -1326.660645  -13374.99902     77.483643
   12247           0      1565.416016  -1237.979126   -124.999985     27.814686
   12248           0      1565.416016  -1237.979126   -375.000000     32.916405
   12249           0      1565.416016  -1237.979126   -624.999939     29.751888
   12250           0      1565.416016  -1237.979126   -875.000000     28.298834
   12251           0      1565.416016  -1237.979126  -1125.000000     28.080217
   12252           0      1565.416016  -1237.979126  -1375.000122     27.445461
   12253           0      1565.416016  -1237.979126  -1625.000000     27.609180
   12254           0      1565.416016  -1237.979126  -1874.999756     28.008585
   12255           0      1565.416016  -1237.979126  -2125.000000     28.832935
   12256           0      1565.416016  -1237.979126  -2375.000244     29.945171
   12257           0      1565.416016  -1237.979126  -2624.999756     31.285543
   12258           0      1565.416016  -1237.979126  -2874.999512     32.799118
   12259           0      1565.416016  -1237.979126  -3124.999756     34.386612
   12260           0      1565.416016  -1237.979126  -3375.000244     36.014160
   12261           0      1565.416016  -1237.979126  -3625.000244     37.603119
   12262           0      1565.416016  -1237.979126  -3875.000244     39.129257
   12263           0      1565.416016  -1237.979126  -4125.000000     40.543068
   12264           0      1565.416016  -1237.979126  -4375.000000     41.828400
   12265           0      1565.416016  -1237.979126  -4625.000000     42.957127
   12266           0      1565.416016  -1237.979126  -4875.000000     43.919846
   12267           0      1565.416016  -1237.979126  -5124.999512     44.701710
   12268           0      1565.416016  -1237.979126  -5374.999512     45.299088
   12269           0      1565.416016  -1237.979126  -5625.000000     45.706810
   12270           0      1565.416016  -1237.979126  -5875.000488     45.926929
   12271           0      1565.416016  -1237.979126  -6125.000977     45.961929
   12272           0      1565.416016  -1237.979126  -6375.000488     45.821728
   12273           0      1565.416016  -1237.979126  -6625.000000     45.517101
   12274           0      1565.416016  -1237.979126  -6875.000488     45.068645
   12275           0      1565.416016  -1237.979126  -7124.999512     44.497536
   12276           0      1565.416016  -1237.979126  -7374.999023     43.837177
   12277           0      1565.416016  -1237.979126  -7625.000000     43.122009
   12278           0      1565.416016  -1237.979126  -7875.000000     42.400948
   12279           0      1565.416016  -1237.979126  -8124.999023     41.723244
   12280           0      1565.416016  -1237.979126  -8374.999023     41.151573
   12281           0      1565.416016  -1237.979126  -8625.000000     40.747795
   12282           0      1565.416016  -1237.979126  -8875.000977     40.580006
   12283           0      1565.416016  -1237.979126  -9125.000000     40.712730
   12284           0      1565.416016  -1237.979126  -9374.999023     41.195095
   12285           0      1565.416016  -1237.979126  -9625.000000     42.081825
   12286           0      1565.416016  -1237.979126  -9875.000000     43.378998
   12287           0      1565.416016  -1237.979126  -10125.00000     45.123852
   12288           0      1565.416016  -1237.979126  -10375.00000     47.263855
   12289           0      1565.416016  -1237.979126  -10624.99902     49.838955
   12290           0      1565.416016  -1237.979126  -10875.00097     52.735920
   12291           0      1565.416016  -1237.979126  -11125.00097     56.022350
   12292           0      1565.416016  -1237.979126  -11375.00000     59.538021
   12293           0      1565.416016  -1237.979126  -11625.00000     63.383728
   12294           0      1565.416016  -1237.979126  -11875.00000     67.378525
   12295           0      1565.416016  -1237.979126  -12125.00000     71.626511
   12296           0      1565.416016  -1237.979126  -12374.99902     76.026489
   12297           0      1565.416016  -1237.979126  -12625.00000     80.363831
   12298           0      1565.416016  -1237.979126  -12874.99902     85.423721
   12299           0      1565.416016  -1237.979126  -13124.99804     90.710732
   12300           0      1565.416016  -1237.979126  -13374.99902     90.353821
   12301           0      1632.069946  -1142.787354   -124.999985     43.971149
   12302           0      1632.069946  -1142.787354   -374.999969     49.958317
   12303           0      1632.069946  -1142.787354   -624.999939     41.684910
   12304           0      1632.069946  -1142.787354   -874.999878     39.046375
   12305           0      1632.069946  -1142.787354  -1124.999878     35.715508
   12306           0      1632.069946  -1142.787354  -1375.000244     32.672123
   12307           0      1632.069946  -1142.787354  -1625.000000     30.123957
   12308           0      1632.069946  -1142.787354  -1874.999512     27.980276
   12309           0      1632.069946  -1142.787354  -2125.000244     26.396072
   12310           0      1632.069946  -1142.787354  -2375.000244     25.355730
   12311           0      1632.069946  -1142.787354  -2624.999756     24.936924
   12312           0      1632.069946  -1142.787354  -2874.999512     25.068609
   12313           0      1632.069946  -1142.787354  -3124.999512     25.727242
   12314           0      1632.069946  -1142.787354  -3375.000488     26.780493
   12315           0      1632.069946  -1142.787354  -3625.000488     28.143999
   12316           0      1632.069946  -1142.787354  -3875.000244     29.684782
   12317           0      1632.069946  -1142.787354  -4125.000488     31.319502
   12318           0      1632.069946  -1142.787354  -4375.000488     32.947041
   12319           0      1632.069946  -1142.787354  -4625.000488     34.505451
   12320           0      1632.069946  -1142.787354  -4874.999512     35.924484
   12321           0      1632.069946  -1142.787354  -5124.999512     37.162312
   12322           0      1632.069946  -1142.787354  -5374.999023     38.171196
   12323           0      1632.069946  -1142.787354  -5625.000000     38.925617
   12324           0      1632.069946  -1142.787354  -5875.000977     39.394299
   12325           0      1632.069946  -1142.787354  -6125.000977     39.565384
   12326           0      1632.069946  -1142.787354  -6375.000000     39.422409
   12327           0      1632.069946  -1142.787354  -6625.000000     38.967537
   12328           0      1632.069946  -1142.787354  -6875.000977     38.198471
   12329           0      1632.069946  -1142.787354  -7124.999023     37.135117
   12330           0      1632.069946  -1142.787354  -7374.998535     35.794670
   12331           0      1632.069946  -1142.787354  -7625.000000     34.223518
   12332           0      1632.069946  -1142.787354  -7875.000000     32.469887
   12333           0      1632.069946  -1142.787354  -8124.999023     30.627678
   12334           0      1632.069946  -1142.787354  -8374.999023     28.801401
   12335           0      1632.069946  -1142.787354  -8625.000000     27.167500
   12336           0      1632.069946  -1142.787354  -8875.000977     25.915108
   12337           0      1632.069946  -1142.787354  -9125.000000     25.304876
   12338           0      1632.069946  -1142.787354  -9374.998047     25.540768
   12339           0      1632.069946  -1142.787354  -9625.000000     26.782248
   12340           0      1632.069946  -1142.787354  -9875.000000     29.035244
   12341           0      1632.069946  -1142.787354  -10125.00000     32.195923
   12342           0      1632.069946  -1142.787354  -10375.00000     36.147537
   12343           0      1632.069946  -1142.787354  -10624.99804     40.665257
   12344           0      1632.069946  -1142.787354  -10875.00195     45.731464
   12345           0      1632.069946  -1142.787354  -11125.00195     51.053261
   12346           0      1632.069946  -1142.787354  -11375.00000     56.815712
   12347           0      1632.069946  -1142.787354  -11625.00000     62.563961
   12348           0      1632.069946  -1142.787354  -11875.00000     68.806198
   12349           0      1632.069946  -1142.787354  -12125.00000     74.678467
   12350           0      1632.069946  -1142.787354  -12375.00000     81.478218
   12351           0      1632.069946  -1142.787354  -12625.00000     87.268463
   12352           0      1632.069946  -1142.787354  -12874.99804     93.034012
   12353           0      1632.069946  -1142.787354  -13124.99609    106.891312
   12354           0      1632.069946  -1142.787354  -13374.99804     95.207626
   12355           0      1698.723877  -1047.595581   -124.999992     65.819008
   12356           0      1698.723877  -1047.595581   -375.000000     65.586800
   12357           0      1698.723877  -1047.595581   -625.000000     57.235439
   12358           0      1698.723877  -1047.595581   -874.999939     52.593292
   12359           0      1698.723877  -1047.595581  -1125.000000     46.275135
   12360           0      1698.723877  -1047.595581  -1375.000122     41.414303
   12361           0      1698.723877  -1047.595581  -1625.000000     36.086601
   12362           0      1698.723877  -1047.595581  -1874.999756     31.577463
   12363           0      1698.723877  -1047.595581  -2125.000000     27.249298
   12364           0      1698.723877  -1047.595581  -2375.000000     23.853708
   12365           0      1698.723877  -1047.595581  -2625.000000     21.408438
   12366           0      1698.723877  -1047.595581  -2874.999756     20.464273
   12367           0      1698.723877  -1047.595581  -3125.000000     21.004227
   12368           0      1698.723877  -1047.595581  -3375.000244     22.896013
   12369           0      1698.723877  -1047.595581  -3625.000000     25.652702
   12370           0      1698.723877  -1047.595581  -3875.000000     28.920372
   12371           0      1698.723877  -1047.595581  -4125.000000     32.356068
   12372           0      1698.723877  -1047.595581  -4375.000000     35.787346
   12373           0      1698.723877  -1047.595581  -4625.000000     39.042713
   12374           0      1698.723877  -1047.595581  -4875.000000     42.048927
   12375           0      1698.723877  -1047.595581  -5125.000000     44.712482
   12376           0      1698.723877  -1047.595581  -5375.000000     46.999878
   12377           0      1698.723877  -1047.595581  -5625.000000     48.855396
   12378           0      1698.723877  -1047.595581  -5875.000488     50.264462
   12379           0      1698.723877  -1047.595581  -6125.000488     51.193951
   12380           0      1698.723877  -1047.595581  -6375.000000     51.640228
   12381           0      1698.723877  -1047.595581  -6625.000000     51.586613
   12382           0      1698.723877  -1047.595581  -6875.000000     51.039505
   12383           0      1698.723877  -1047.595581  -7124.999512     49.997349
   12384           0      1698.723877  -1047.595581  -7374.999023     48.478806
   12385           0      1698.723877  -1047.595581  -7625.000000     46.500473
   12386           0      1698.723877  -1047.595581  -7875.000000     44.103321
   12387           0      1698.723877  -1047.595581  -8125.000000     41.333344
   12388           0      1698.723877  -1047.595581  -8375.000000     38.279152
   12389           0      1698.723877  -1047.595581  -8625.000000     35.048771
   12390           0      1698.723877  -1047.595581  -8875.000000     31.846226
   12391           0      1698.723877  -1047.595581  -9125.000000     28.924328
   12392           0      1698.723877  -1047.595581  -9375.000000     26.729458
   12393           0      1698.723877  -1047.595581  -9625.000000     25.706974
   12394           0      1698.723877  -1047.595581  -9875.000000     26.365839
   12395           0      1698.723877  -1047.595581  -10124.99902     28.763170
   12396           0      1698.723877  -1047.595581  -10374.99902     32.781197
   12397           0      1698.723877  -1047.595581  -10625.00000     37.983940
   12398           0      1698.723877  -1047.595581  -10875.00000     44.069839
   12399           0      1698.723877  -1047.595581  -11125.00000     50.780792
   12400           0      1698.723877  -1047.595581  -11375.00000     57.838734
   12401           0      1698.723877  -1047.595581  -11625.00000     65.325226
   12402           0      1698.723877  -1047.595581  -11875.00000     72.760689
   12403           0      1698.723877  -1047.595581  -12125.00000     80.761665
   12404           0      1698.723877  -1047.595581  -12374.99902     88.282364
   12405           0      1698.723877  -1047.595581  -12625.00000     96.969284
   12406           0      1698.723877  -1047.595581  -12874.99902    103.529922
   12407           0      1698.723877  -1047.595581  -13124.99902    117.155365
   12408           0      1698.723877  -1047.595581  -13374.99902    110.822334
   12409           0      1756.606689   -947.339722   -124.999985     78.233345
   12410           0      1756.606689   -947.339722   -375.000000     80.005386
   12411           0      1756.606689   -947.339722   -624.999939     68.505554
   12412           0      1756.606689   -947.339722   -875.000000     60.781715
   12413           0      1756.606689   -947.339722  -1125.000000     52.703354
   12414           0      1756.606689   -947.339722  -1375.000122     44.805569
   12415           0      1756.606689   -947.339722  -1625.000000     36.908863
   12416           0      1756.606689   -947.339722  -1874.999756     29.220037
   12417           0      1756.606689   -947.339722  -2125.000000     21.738211
   12418           0      1756.606689   -947.339722  -2375.000244     15.047280
   12419           0      1756.606689   -947.339722  -2624.999756     10.583001
   12420           0      1756.606689   -947.339722  -2874.999512     11.079287
   12421           0      1756.606689   -947.339722  -3124.999756     15.939115
   12422           0      1756.606689   -947.339722  -3375.000244     22.067574
   12423           0      1756.606689   -947.339722  -3625.000244     28.513056
   12424           0      1756.606689   -947.339722  -3875.000244     34.730999
   12425           0      1756.606689   -947.339722  -4125.000000     40.681404
   12426           0      1756.606689   -947.339722  -4375.000000     46.170807
   12427           0      1756.606689   -947.339722  -4625.000000     51.220814
   12428           0      1756.606689   -947.339722  -4875.000000     55.724953
   12429           0      1756.606689   -947.339722  -5124.999512     59.705479
   12430           0      1756.606689   -947.339722  -5374.999512     63.098080
   12431           0      1756.606689   -947.339722  -5625.000000     65.919930
   12432           0      1756.606689   -947.339722  -5875.000488     68.132584
   12433           0      1756.606689   -947.339722  -6125.000977     69.749069
   12434           0      1756.606689   -947.339722  -6375.000488     70.749718
   12435           0      1756.606689   -947.339722  -6625.000000     71.144234
   12436           0      1756.606689   -947.339722  -6875.000488     70.927353
   12437           0      1756.606689   -947.339722  -7124.999512     70.107338
   12438           0      1756.606689   -947.339722  -7374.999023     68.694542
   12439           0      1756.606689   -947.339722  -7625.000000     66.698784
   12440           0      1756.606689   -947.339722  -7875.000000     64.149643
   12441           0      1756.606689   -947.339722  -8124.999023     61.066833
   12442           0      1756.606689   -947.339722  -8374.999023     57.510765
   12443           0      1756.606689   -947.339722  -8625.000000     53.530548
   12444           0      1756.606689   -947.339722  -8875.000977     49.244274
   12445           0      1756.606689   -947.339722  -9125.000000     44.785267
   12446           0      1756.606689   -947.339722  -9374.999023     40.403080
   12447           0      1756.606689   -947.339722  -9625.000000     36.451305
   12448           0      1756.606689   -947.339722  -9875.000000     33.441147
   12449           0      1756.606689   -947.339722  -10125.00000     32.073780
   12450           0      1756.606689   -947.339722  -10375.00000     32.801083
   12451           0      1756.606689   -947.339722  -10624.99902     35.952351
   12452           0      1756.606689   -947.339722  -10875.00097     40.940498
   12453           0      1756.606689   -947.339722  -11125.00097     47.658611
   12454           0      1756.606689   -947.339722  -11375.00000     55.142414
   12455           0      1756.606689   -947.339722  -11625.00000     63.718132
   12456           0      1756.606689   -947.339722  -11875.00000     72.327385
   12457           0      1756.606689   -947.339722  -12125.00000     81.893608
   12458           0      1756.606689   -947.339722  -12374.99902     90.960037
   12459           0      1756.606689   -947.339722  -12625.00000    101.210724
   12460           0      1756.606689   -947.339722  -12874.99902    110.589684
   12461           0      1756.606689   -947.339722  -13124.99804    122.114990
   12462           0      1756.606689   -947.339722  -13374.99902    126.260521
   12463           0      1805.718140   -842.019836   -124.999985     82.399338
   12464           0      1805.718140   -842.019836   -374.999969     92.538528
   12465           0      1805.718140   -842.019836   -624.999939     74.295158
   12466           0      1805.718140   -842.019836   -874.999878     64.645905
   12467           0      1805.718140   -842.019836  -1124.999878     54.853329
   12468           0      1805.718140   -842.019836  -1375.000244     43.929714
   12469           0      1805.718140   -842.019836  -1625.000000     34.333393
   12470           0      1805.718140   -842.019836  -1874.999512     24.854233
   12471           0      1805.718140   -842.019836  -2125.000244     18.017761
   12472           0      1805.718140   -842.019836  -2375.000244     15.818783
   12473           0      1805.718140   -842.019836  -2624.999756     19.844515
   12474           0      1805.718140   -842.019836  -2874.999512     26.989330
   12475           0      1805.718140   -842.019836  -3124.999512     34.951042
   12476           0      1805.718140   -842.019836  -3375.000488     43.028549
   12477           0      1805.718140   -842.019836  -3625.000488     50.756115
   12478           0      1805.718140   -842.019836  -3875.000244     58.098354
   12479           0      1805.718140   -842.019836  -4125.000488     64.875481
   12480           0      1805.718140   -842.019836  -4375.000488     71.119576
   12481           0      1805.718140   -842.019836  -4625.000488     76.738869
   12482           0      1805.718140   -842.019836  -4874.999512     81.767426
   12483           0      1805.718140   -842.019836  -5124.999512     86.156113
   12484           0      1805.718140   -842.019836  -5374.999023     89.932289
   12485           0      1805.718140   -842.019836  -5625.000000     93.071564
   12486           0      1805.718140   -842.019836  -5875.000977     95.592903
   12487           0      1805.718140   -842.019836  -6125.000977     97.486076
   12488           0      1805.718140   -842.019836  -6375.000000     98.763054
   12489           0      1805.718140   -842.019836  -6625.000000     99.423378
   12490           0      1805.718140   -842.019836  -6875.000977     99.472389
   12491           0      1805.718140   -842.019836  -7124.999023     98.917557
   12492           0      1805.718140   -842.019836  -7374.998535     97.758942
   12493           0      1805.718140   -842.019836  -7625.000000     96.013313
   12494           0      1805.718140   -842.019836  -7875.000000     93.678139
   12495           0      1805.718140   -842.019836  -8124.999023     90.784660
   12496           0      1805.718140   -842.019836  -8374.999023     87.332573
   12497           0      1805.718140   -842.019775  -8625.000000     83.378563
   12498           0      1805.718140   -842.019775  -8875.000977     78.937080
   12499           0      1805.718140   -842.019775  -9125.000000     74.114975
   12500           0      1805.718140   -842.019775  -9374.998047     68.968460
   12501           0      1805.718140   -842.019775  -9625.000000     63.704170
   12502           0      1805.718140   -842.019775  -9875.000000     58.495949
   12503           0      1805.718140   -842.019775  -10125.00000     53.747066
   12504           0      1805.718140   -842.019775  -10375.00000     49.890224
   12505           0      1805.718140   -842.019775  -10624.99804     47.564556
   12506           0      1805.718140   -842.019775  -10875.00195     47.420502
   12507           0      1805.718140   -842.019775  -11125.00195     49.694275
   12508           0      1805.718140   -842.019775  -11375.00000     54.660080
   12509           0      1805.718140   -842.019775  -11625.00000     61.407742
   12510           0      1805.718140   -842.019775  -11875.00000     70.304230
   12511           0      1805.718140   -842.019775  -12125.00000     79.584953
   12512           0      1805.718140   -842.019775  -12375.00000     90.841331
   12513           0      1805.718140   -842.019775  -12625.00000    101.134315
   12514           0      1805.718140   -842.019775  -12874.99804    111.758163
   12515           0      1805.718140   -842.019775  -13124.99609    132.353668
   12516           0      1805.718140   -842.019836  -13374.99804    120.523582
   12517           0      1854.829468   -736.699951   -124.999992     98.614326
   12518           0      1854.829468   -736.699951   -375.000000    100.484856
   12519           0      1854.829468   -736.699951   -625.000000     82.374260
   12520           0      1854.829468   -736.699951   -874.999939     72.046707
   12521           0      1854.829468   -736.699951  -1125.000000     58.687344
   12522           0      1854.829468   -736.699951  -1375.000122     47.247784
   12523           0      1854.829468   -736.699951  -1625.000000     35.954975
   12524           0      1854.829468   -736.699951  -1874.999756     28.301046
   12525           0      1854.829468   -736.699951  -2125.000000     25.885487
   12526           0      1854.829468   -736.699951  -2375.000000     30.058582
   12527           0      1854.829468   -736.699951  -2625.000000     38.027969
   12528           0      1854.829468   -736.699951  -2874.999756     47.336178
   12529           0      1854.829468   -736.699951  -3125.000000     56.930607
   12530           0      1854.829468   -736.699951  -3375.000244     66.190208
   12531           0      1854.829468   -736.699951  -3625.000000     74.981514
   12532           0      1854.829468   -736.699951  -3875.000000     83.112473
   12533           0      1854.829468   -736.699951  -4125.000000     90.592728
   12534           0      1854.829468   -736.699951  -4375.000000     97.351898
   12535           0      1854.829468   -736.699951  -4625.000000    103.422646
   12536           0      1854.829468   -736.699951  -4875.000000    108.782341
   12537           0      1854.829468   -736.699951  -5125.000000    113.463326
   12538           0      1854.829468   -736.699951  -5375.000000    117.463577
   12539           0      1854.829468   -736.699951  -5625.000000    120.808662
   12540           0      1854.829468   -736.699951  -5875.000488    123.505745
   12541           0      1854.829468   -736.699951  -6125.000488    125.571808
   12542           0      1854.829468   -736.699951  -6375.000000    127.016335
   12543           0      1854.829468   -736.699951  -6625.000000    127.847137
   12544           0      1854.829468   -736.699951  -6875.000000    128.074448
   12545           0      1854.829468   -736.699951  -7124.999512    127.696838
   12546           0      1854.829468   -736.699951  -7374.999023    126.724907
   12547           0      1854.829468   -736.699951  -7625.000000    125.148666
   12548           0      1854.829468   -736.699951  -7875.000000    122.982544
   12549           0      1854.829468   -736.699951  -8125.000000    120.209167
   12550           0      1854.829468   -736.699951  -8375.000000    116.853584
   12551           0      1854.829468   -736.699951  -8625.000000    112.894783
   12552           0      1854.829468   -736.699951  -8875.000000    108.383163
   12553           0      1854.829468   -736.699951  -9125.000000    103.300972
   12554           0      1854.829468   -736.699951  -9375.000000     97.753052
   12555           0      1854.829468   -736.699951  -9625.000000     91.746597
   12556           0      1854.829468   -736.699951  -9875.000000     85.501968
   12557           0      1854.829468   -736.699951  -10124.99902     79.103851
   12558           0      1854.829468   -736.699890  -10374.99902     73.015503
   12559           0      1854.829468   -736.699890  -10625.00000     67.521973
   12560           0      1854.829468   -736.699890  -10875.00000     63.498112
   12561           0      1854.829468   -736.699890  -11125.00000     61.470417
   12562           0      1854.829468   -736.699890  -11375.00000     62.395966
   12563           0      1854.829468   -736.699890  -11625.00000     66.355522
   12564           0      1854.829468   -736.699890  -11875.00000     73.230019
   12565           0      1854.829468   -736.699890  -12125.00000     82.490845
   12566           0      1854.829468   -736.699890  -12374.99902     93.107483
   12567           0      1854.829468   -736.699890  -12625.00000    105.345451
   12568           0      1854.829468   -736.699890  -12874.99902    115.946594
   12569           0      1854.829468   -736.699890  -13124.99902    136.899323
   12570           0      1854.829468   -736.699951  -13374.99902    128.723572
   12571           0      1894.423584   -627.916016   -124.999985    100.640396
   12572           0      1894.423584   -627.916016   -375.000000     95.454674
   12573           0      1894.423584   -627.916016   -624.999939     79.678909
   12574           0      1894.423584   -627.916016   -875.000000     69.719131
   12575           0      1894.423584   -627.916016  -1125.000000     57.109207
   12576           0      1894.423584   -627.916016  -1375.000122     48.393517
   12577           0      1894.423584   -627.916016  -1625.000000     41.654713
   12578           0      1894.423584   -627.916016  -1874.999756     40.825050
   12579           0      1894.423584   -627.916016  -2125.000000     44.396656
   12580           0      1894.423584   -627.916016  -2375.000244     51.630856
   12581           0      1894.423584   -627.916016  -2624.999756     60.308086
   12582           0      1894.423584   -627.916016  -2874.999512     69.541695
   12583           0      1894.423584   -627.916016  -3124.999756     78.625153
   12584           0      1894.423584   -627.916016  -3375.000244     87.283157
   12585           0      1894.423584   -627.916016  -3625.000244     95.349197
   12586           0      1894.423584   -627.916016  -3875.000244    102.747032
   12587           0      1894.423584   -627.916016  -4125.000000    109.460670
   12588           0      1894.423584   -627.916016  -4375.000000    115.480743
   12589           0      1894.423584   -627.916016  -4625.000000    120.833687
   12590           0      1894.423584   -627.916016  -4875.000000    125.534546
   12591           0      1894.423584   -627.916016  -5124.999512    129.617722
   12592           0      1894.423584   -627.916016  -5374.999512    133.105103
   12593           0      1894.423584   -627.916016  -5625.000000    136.028046
   12594           0      1894.423584   -627.916016  -5875.000488    138.405914
   12595           0      1894.423584   -627.916016  -6125.000977    140.262939
   12596           0      1894.423584   -627.916016  -6375.000488    141.612488
   12597           0      1894.423584   -627.916016  -6625.000000    142.469849
   12598           0      1894.423584   -627.916016  -6875.000488    142.840607
   12599           0      1894.423584   -627.916016  -7124.999512    142.732346
   12600           0      1894.423584   -627.916016  -7374.999023    142.140396
   12601           0      1894.423584   -627.916016  -7625.000000    141.067566
   12602           0      1894.423584   -627.916016  -7875.000000    139.499435
   12603           0      1894.423584   -627.916016  -8124.999023    137.436737
   12604           0      1894.423584   -627.916016  -8374.999023    134.857880
   12605           0      1894.423584   -627.916016  -8625.000000    131.766479
   12606           0      1894.423584   -627.916016  -8875.000977    128.139923
   12607           0      1894.423584   -627.916016  -9125.000000    123.997375
   12608           0      1894.423584   -627.916016  -9374.999023    119.324059
   12609           0      1894.423584   -627.916016  -9625.000000    114.181534
   12610           0      1894.423584   -627.916016  -9875.000000    108.584244
   12611           0      1894.423584   -627.916016  -10125.00000    102.693565
   12612           0      1894.423584   -627.916016  -10375.00000     96.592476
   12613           0      1894.423584   -627.916016  -10624.99902     90.668358
   12614           0      1894.423584   -627.916016  -10875.00097     85.120911
   12615           0      1894.423584   -627.916016  -11125.00097     80.782135
   12616           0      1894.423584   -627.916016  -11375.00000     77.848503
   12617           0      1894.423584   -627.916016  -11625.00000     77.700989
   12618           0      1894.423584   -627.916016  -11875.00000     79.645287
   12619           0      1894.423584   -627.916016  -12125.00000     85.436867
   12620           0      1894.423584   -627.916016  -12374.99902     92.080276
   12621           0      1894.423584   -627.916016  -12625.00000    102.935600
   12622           0      1894.423584   -627.916016  -12874.99902    112.107063
   12623           0      1894.423584   -627.916016  -13124.99804    125.477844
   12624           0      1894.423584   -627.916016  -13374.99902    135.398453
   12625           0      1924.500366   -515.667969   -124.999985     77.267471
   12626           0      1924.500366   -515.667969   -374.999969     84.130966
   12627           0      1924.500366   -515.667969   -624.999939     68.025932
   12628           0      1924.500366   -515.667969   -874.999878     61.585114
   12629           0      1924.500366   -515.667969  -1124.999878     56.483219
   12630           0      1924.500366   -515.667969  -1375.000244     55.158352
   12631           0      1924.500366   -515.667969  -1625.000000     57.999416
   12632           0      1924.500366   -515.667969  -1874.999512     63.478390
   12633           0      1924.500366   -515.667969  -2125.000244     70.594421
   12634           0      1924.500366   -515.667969  -2375.000244     78.339432
   12635           0      1924.500366   -515.667969  -2624.999756     86.085136
   12636           0      1924.500366   -515.667969  -2874.999512     93.542496
   12637           0      1924.500366   -515.667969  -3124.999512    100.457382
   12638           0      1924.500366   -515.667969  -3375.000488    106.802948
   12639           0      1924.500366   -515.667969  -3625.000488    112.496613
   12640           0      1924.500366   -515.667969  -3875.000244    117.590767
   12641           0      1924.500366   -515.667969  -4125.000488    122.077110
   12642           0      1924.500366   -515.667969  -4375.000488    126.025345
   12643           0      1924.500366   -515.667969  -4625.000488    129.456589
   12644           0      1924.500366   -515.667969  -4874.999512    132.434921
   12645           0      1924.500366   -515.667969  -5124.999512    134.989883
   12646           0      1924.500366   -515.667969  -5374.999023    137.173752
   12647           0      1924.500366   -515.667969  -5625.000000    139.012024
   12648           0      1924.500366   -515.667969  -5875.000977    140.544556
   12649           0      1924.500366   -515.667969  -6125.000977    141.789307
   12650           0      1924.500366   -515.667969  -6375.000000    142.771729
   12651           0      1924.500366   -515.667969  -6625.000000    143.501404
   12652           0      1924.500366   -515.667969  -6875.000977    143.990784
   12653           0      1924.500366   -515.667969  -7124.999023    144.239456
   12654           0      1924.500366   -515.667969  -7374.998535    144.247833
   12655           0      1924.500366   -515.667969  -7625.000000    144.005783
   12656           0      1924.500366   -515.667969  -7875.000000    143.502762
   12657           0      1924.500366   -515.667969  -8124.999023    142.719574
   12658           0      1924.500366   -515.667969  -8374.999023    141.635300
   12659           0      1924.500366   -515.667969  -8625.000000    140.225037
   12660           0      1924.500366   -515.667969  -8875.000977    138.459808
   12661           0      1924.500366   -515.667969  -9125.000000    136.313248
   12662           0      1924.500366   -515.667969  -9374.998047    133.755020
   12663           0      1924.500366   -515.667969  -9625.000000    130.768204
   12664           0      1924.500366   -515.667969  -9875.000000    127.332970
   12665           0      1924.500366   -515.667969  -10125.00000    123.465836
   12666           0      1924.500366   -515.667969  -10375.00000    119.180931
   12667           0      1924.500366   -515.667969  -10624.99804    114.573433
   12668           0      1924.500366   -515.667969  -10875.00195    109.734512
   12669           0      1924.500366   -515.667969  -11125.00195    104.911125
   12670           0      1924.500366   -515.667969  -11375.00000    100.340355
   12671           0      1924.500366   -515.667969  -11625.00000     96.496017
   12672           0      1924.500366   -515.667969  -11875.00000     93.795586
   12673           0      1924.500366   -515.667969  -12125.00000     92.887474
   12674           0      1924.500366   -515.667969  -12375.00000     94.020836
   12675           0      1924.500366   -515.667969  -12625.00000     98.087791
   12676           0      1924.500366   -515.667969  -12874.99804    102.017197
   12677           0      1924.500366   -515.667969  -13124.99609    115.602722
   12678           0      1924.500366   -515.667969  -13374.99804    110.139145
   12679           0      1954.577148   -403.420013   -124.999992     63.036579
   12680           0      1954.577148   -403.420013   -375.000000     73.563072
   12681           0      1954.577148   -403.420013   -625.000000     64.587555
   12682           0      1954.577148   -403.420013   -874.999939     62.939491
   12683           0      1954.577148   -403.420013  -1125.000000     64.909012
   12684           0      1954.577148   -403.420013  -1375.000122     70.216072
   12685           0      1954.577148   -403.420013  -1625.000000     78.016815
   12686           0      1954.577148   -403.420013  -1874.999756     86.299042
   12687           0      1954.577148   -403.420013  -2125.000000     94.542450
   12688           0      1954.577148   -403.420013  -2375.000000    102.060143
   12689           0      1954.577148   -403.420013  -2625.000000    108.831718
   12690           0      1954.577148   -403.420013  -2874.999756    114.686043
   12691           0      1954.577148   -403.420013  -3125.000000    119.726631
   12692           0      1954.577148   -403.420013  -3375.000244    123.950798
   12693           0      1954.577148   -403.420013  -3625.000000    127.480034
   12694           0      1954.577148   -403.420013  -3875.000000    130.369125
   12695           0      1954.577148   -403.420013  -4125.000000    132.731613
   12696           0      1954.577148   -403.420013  -4375.000000    134.636139
   12697           0      1954.577148   -403.420013  -4625.000000    136.178467
   12698           0      1954.577148   -403.420013  -4875.000000    137.422028
   12699           0      1954.577148   -403.420013  -5125.000000    138.442062
   12700           0      1954.577148   -403.420013  -5375.000000    139.288300
   12701           0      1954.577148   -403.420013  -5625.000000    140.017105
   12702           0      1954.577148   -403.420013  -5875.000488    140.661774
   12703           0      1954.577148   -403.420013  -6125.000488    141.260056
   12704           0      1954.577148   -403.420013  -6375.000000    141.830826
   12705           0      1954.577148   -403.420013  -6625.000000    142.394882
   12706           0      1954.577148   -403.420013  -6875.000000    142.956467
   12707           0      1954.577148   -403.420013  -7124.999512    143.520187
   12708           0      1954.577148   -403.420013  -7374.999023    144.078247
   12709           0      1954.577148   -403.420013  -7625.000000    144.618164
   12710           0      1954.577148   -403.420013  -7875.000000    145.120193
   12711           0      1954.577148   -403.420013  -8125.000000    145.555359
   12712           0      1954.577148   -403.420013  -8375.000000    145.891830
   12713           0      1954.577148   -403.420013  -8625.000000    146.083633
   12714           0      1954.577148   -403.420013  -8875.000000    146.086914
   12715           0      1954.577148   -403.420013  -9125.000000    145.840057
   12716           0      1954.577148   -403.420013  -9375.000000    145.289902
   12717           0      1954.577148   -403.420013  -9625.000000    144.360077
   12718           0      1954.577148   -403.420013  -9875.000000    142.997940
   12719           0      1954.577148   -403.420013  -10124.99902    141.118546
   12720           0      1954.577148   -403.420013  -10374.99902    138.690186
   12721           0      1954.577148   -403.420013  -10625.00000    135.631058
   12722           0      1954.577148   -403.420013  -10875.00000    131.973907
   12723           0      1954.577148   -403.419983  -11125.00000    127.664360
   12724           0      1954.577148   -403.419983  -11375.00000    122.888237
   12725           0      1954.577148   -403.419983  -11625.00000    117.675865
   12726           0      1954.577148   -403.419983  -11875.00000    112.585190
   12727           0      1954.577148   -403.419983  -12125.00000    107.784317
   12728           0      1954.577148   -403.419983  -12374.99902    104.613213
   12729           0      1954.577148   -403.419983  -12625.00000    102.604111
   12730           0      1954.577148   -403.419983  -12874.99902    102.402039
   12731           0      1954.577148   -403.419983  -13124.99902    108.640411
   12732           0      1954.577148   -403.420013  -13374.99902     95.156822
   12733           0      1979.795044   -273.648010   -124.999992     49.509823
   12734           0      1979.795044   -273.648010   -375.000000     62.399078
   12735           0      1979.795044   -273.648010   -625.000000     68.306236
   12736           0      1979.795044   -273.648010   -875.000000     74.374809
   12737           0      1979.795044   -273.648010  -1125.000000     80.182655
   12738           0      1979.795044   -273.648010  -1375.000000     86.073242
   12739           0      1979.795044   -273.648010  -1625.000000     91.688789
   12740           0      1979.795044   -273.648010  -1875.000000     96.829765
   12741           0      1979.795044   -273.648010  -2125.000000    101.156944
   12742           0      1979.795044   -273.648010  -2375.000000    104.653122
   12743           0      1979.795044   -273.648010  -2625.000000    107.212143
   12744           0      1979.795044   -273.648010  -2875.000000    108.934021
   12745           0      1979.795044   -273.648010  -3125.000000    109.863747
   12746           0      1979.795044   -273.648010  -3375.000000    110.142036
   12747           0      1979.795044   -273.648010  -3625.000000    109.871986
   12748           0      1979.795044   -273.648010  -3875.000000    109.192841
   12749           0      1979.795044   -273.648010  -4125.000000    108.215691
   12750           0      1979.795044   -273.648010  -4375.000000    107.060158
   12751           0      1979.795044   -273.648010  -4625.000000    105.823669
   12752           0      1979.795044   -273.648010  -4875.000000    104.601196
   12753           0      1979.795044   -273.648010  -5125.000000    103.468704
   12754           0      1979.795044   -273.648010  -5375.000000    102.495964
   12755           0      1979.795044   -273.648010  -5625.000000    101.736160
   12756           0      1979.795044   -273.648010  -5875.000000    101.235100
   12757           0      1979.795044   -273.648010  -6125.000000    101.024681
   12758           0      1979.795044   -273.648010  -6375.000000    101.128883
   12759           0      1979.795044   -273.648010  -6625.000000    101.560295
   12760           0      1979.795044   -273.648010  -6875.000000    102.323204
   12761           0      1979.795044   -273.648010  -7124.999512    103.413521
   12762           0      1979.795044   -273.648010  -7375.000000    104.818138
   12763           0      1979.795044   -273.648010  -7625.000000    106.518089
   12764           0      1979.795044   -273.648010  -7875.000000    108.483627
   12765           0      1979.795044   -273.648010  -8125.000000    110.682175
   12766           0      1979.795044   -273.648010  -8375.000000    113.067642
   12767           0      1979.795044   -273.648010  -8625.000000    115.592674
   12768           0      1979.795044   -273.648010  -8875.000000    118.193977
   12769           0      1979.795044   -273.648010  -9125.000000    120.809029
   12770           0      1979.795044   -273.648010  -9375.000000    123.356346
   12771           0      1979.795044   -273.648010  -9625.000000    125.757805
   12772           0      1979.795044   -273.648010  -9875.000000    127.916382
   12773           0      1979.795044   -273.648010  -10125.00000    129.742981
   12774           0      1979.795044   -273.648010  -10375.00000    131.134277
   12775           0      1979.795044   -273.648010  -10625.00000    132.004120
   12776           0      1979.795044   -273.648010  -10875.00000    132.269577
   12777           0      1979.795044   -273.648010  -11125.00000    131.873230
   12778           0      1979.795044   -273.648010  -11375.00000    130.805817
   12779           0      1979.795044   -273.648010  -11625.00000    129.064728
   12780           0      1979.795044   -273.648010  -11875.00000    126.780273
   12781           0      1979.795044   -273.648010  -12125.00000    123.922585
   12782           0      1979.795044   -273.648010  -12374.99902    120.761421
   12783           0      1979.795044   -273.648010  -12625.00000    116.851501
   12784           0      1979.795044   -273.648010  -12875.00000    111.419540
   12785           0      1979.795044   -273.648010  -13125.00000    106.480392
   12786           0      1979.795044   -273.648010  -13375.00000     90.368248
   12787           0      1994.987305   -100.000000   -124.999992     59.885330
   12788           0      1994.987305   -100.000000   -375.000000     66.592255
   12789           0      1994.987305   -100.000000   -625.000000     68.147667
   12790           0      1994.987305   -100.000000   -875.000000     71.600716
   12791           0      1994.987305   -100.000000  -1125.000000     74.110291
   12792           0      1994.987305   -100.000000  -1375.000000     78.350067
   12793           0      1994.987305   -100.000000  -1625.000000     82.406319
   12794           0      1994.987305   -100.000000  -1875.000000     86.828056
   12795           0      1994.987305   -100.000000  -2125.000000     90.575966
   12796           0      1994.987305   -100.000000  -2375.000000     93.852577
   12797           0      1994.987305   -100.000000  -2625.000000     96.275337
   12798           0      1994.987305   -100.000000  -2875.000000     98.018127
   12799           0      1994.987305   -100.000000  -3125.000000     99.019958
   12800           0      1994.987305   -100.000000  -3375.000000     99.444801
   12801           0      1994.987305   -100.000000  -3625.000000     99.355064
   12802           0      1994.987305   -100.000000  -3875.000000     98.894020
   12803           0      1994.987305   -100.000000  -4125.000000     98.158524
   12804           0      1994.987305   -100.000000  -4375.000000     97.265488
   12805           0      1994.987305   -100.000000  -4625.000000     96.309189
   12806           0      1994.987305   -100.000000  -4875.000000     95.379982
   12807           0      1994.987305   -100.000000  -5125.000000     94.555008
   12808           0      1994.987305   -100.000000  -5375.000000     93.898926
   12809           0      1994.987305   -100.000000  -5625.000000     93.466782
   12810           0      1994.987305   -100.000000  -5875.000000     93.299347
   12811           0      1994.987305   -100.000000  -6125.000000     93.428963
   12812           0      1994.987305   -100.000000  -6375.000000     93.875046
   12813           0      1994.987305   -100.000000  -6625.000000     94.648636
   12814           0      1994.987305   -100.000000  -6875.000000     95.750740
   12815           0      1994.987305   -100.000000  -7124.999512     97.174141
   12816           0      1994.987305   -100.000000  -7375.000000     98.904793
   12817           0      1994.987305   -100.000000  -7625.000000    100.919998
   12818           0      1994.987305   -100.000000  -7875.000000    103.192314
   12819           0      1994.987305   -100.000000  -8125.000000    105.686325
   12820           0      1994.987305   -100.000000  -8375.000000    108.361603
   12821           0      1994.987305   -100.000000  -8625.000000    111.170959
   12822           0      1994.987305   -100.000000  -8875.000000    114.059105
   12823           0      1994.987305   -100.000000  -9125.000000    116.970627
   12824           0      1994.987305   -100.000000  -9375.000000    119.830605
   12825           0      1994.987305   -100.000000  -9625.000000    122.583092
   12826           0      1994.987305   -100.000000  -9875.000000    125.127426
   12827           0      1994.987305   -100.000000  -10125.00000    127.428925
   12828           0      1994.987305   -100.000000  -10375.00000    129.349808
   12829           0      1994.987305   -100.000000  -10625.00000    130.927856
   12830           0      1994.987305   -100.000000  -10875.00000    131.968460
   12831           0      1994.987305   -100.000000  -11125.00000    132.690781
   12832           0      1994.987305   -100.000000  -11375.00000    132.790466
   12833           0      1994.987305   -100.000000  -11625.00000    132.877258
   12834           0      1994.987305   -100.000000  -11875.00000    132.349625
   12835           0      1994.987305   -100.000000  -12125.00000    132.524872
   12836           0      1994.987305   -100.000000  -12374.99902    131.847488
   12837           0      1994.987305   -100.000000  -12625.00000    132.786270
   12838           0      1994.987305   -100.000000  -12875.00000    130.775818
   12839           0      1994.987305   -100.000000  -13125.00000    130.221649
   12840           0      1994.987305   -100.000000  -13375.00000    121.090668
   12841           0      1865.601318   -200.000000  -26125.00000     27.143915
   12842           0      1865.601318   -200.000000  -26375.00000     32.129440
   12843           0      1865.601318   -200.000000  -26625.00000     47.228039
   12844           0      1865.601318   -200.000000  -26875.00000     53.162781
   12845           0      1865.601318   -200.000000  -27125.00000     50.624199
   12846           0      1865.601318   -200.000000  -27375.00000     42.646538
   12847           0      1865.601318   -200.000000  -27625.00000     30.844019
   12848           0      1865.601318   -200.000000  -27875.00000     17.616858
   12849           0      1865.601318   -200.000000  -28125.00000      9.709613
   12850           0      1865.601318   -200.000000  -28375.00000     19.257595
   12851           0      1865.601318   -200.000000  -28625.00000     32.538177
   12852           0      1865.601318   -200.000000  -28875.00000     43.773190
   12853           0      1865.601318   -200.000000  -29125.00000     51.317986
   12854           0      1865.601318   -200.000000  -29375.00000     52.019169
   12855           0      1865.601318   -200.000000  -29625.00000     44.849934
   12856           0      1865.601318   -200.000000  -29875.00000     23.952356
   12857           0      1616.854492   -200.000000  -26125.00000     63.640926
   12858           0      1616.854492   -200.000000  -26375.00000     42.217518
   12859           0      1616.854492   -200.000000  -26625.00000     47.149925
   12860           0      1616.854492   -200.000000  -26875.00000     51.545341
   12861           0      1616.854492   -200.000000  -27125.00000     50.855469
   12862           0      1616.854492   -200.000000  -27375.00000     45.690853
   12863           0      1616.854492   -200.000000  -27625.00000     38.292950
   12864           0      1616.854492   -200.000000  -27875.00000     31.372038
   12865           0      1616.854492   -200.000000  -28125.00000     28.662235
   12866           0      1616.854492   -200.000000  -28375.00000     32.077492
   12867           0      1616.854492   -200.000000  -28625.00000     39.140415
   12868           0      1616.854492   -200.000000  -28875.00000     46.226688
   12869           0      1616.854492   -200.000000  -29125.00000     50.461700
   12870           0      1616.854492   -200.000000  -29375.00000     50.056797
   12871           0      1616.854492   -200.000000  -29625.00000     44.041813
   12872           0      1616.854492   -200.000000  -29875.00000     43.046146
   12873           0      1368.107666   -200.000000  -26125.00000     96.319847
   12874           0      1368.107666   -200.000000  -26375.00000     56.769272
   12875           0      1368.107666   -200.000000  -26625.00000     45.490768
   12876           0      1368.107666   -200.000000  -26875.00000     46.785408
   12877           0      1368.107666   -200.000000  -27125.00000     48.440735
   12878           0      1368.107666   -200.000000  -27375.00000     47.825413
   12879           0      1368.107666   -200.000000  -27625.00000     45.673401
   12880           0      1368.107666   -200.000000  -27875.00000     43.516514
   12881           0      1368.107666   -200.000000  -28125.00000     42.691601
   12882           0      1368.107666   -200.000000  -28375.00000     43.679199
   12883           0      1368.107666   -200.000000  -28625.00000     45.742836
   12884           0      1368.107666   -200.000000  -28875.00000     47.438507
   12885           0      1368.107666   -200.000000  -29125.00000     47.154411
   12886           0      1368.107666   -200.000000  -29375.00000     44.633110
   12887           0      1368.107666   -200.000000  -29625.00000     44.230392
   12888           0      1368.107666   -200.000000  -29875.00000     63.333992
   12889           0      1119.360840   -200.000000  -26125.00000    123.983971
   12890           0      1119.360840   -200.000000  -26375.00000     72.124199
   12891           0      1119.360840   -200.000000  -26625.00000     45.132763
   12892           0      1119.360840   -200.000000  -26875.00000     39.777809
   12893           0      1119.360840   -200.000000  -27125.00000     43.808037
   12894           0      1119.360840   -200.000000  -27375.00000     48.296158
   12895           0      1119.360840   -200.000000  -27625.00000     51.204044
   12896           0      1119.360840   -200.000000  -27875.00000     52.661846
   12897           0      1119.360840   -200.000000  -28125.00000     53.055038
   12898           0      1119.360840   -200.000000  -28375.00000     52.486427
   12899           0      1119.360840   -200.000000  -28625.00000     50.699566
   12900           0      1119.360840   -200.000000  -28875.00000     47.163284
   12901           0      1119.360840   -200.000000  -29125.00000     41.846836
   12902           0      1119.360840   -200.000000  -29375.00000     37.683407
   12903           0      1119.360840   -200.000000  -29625.00000     46.728504
   12904           0      1119.360840   -200.000000  -29875.00000     80.453156
   12905           0       870.613953   -200.000000  -26125.00000    146.219147
   12906           0       870.613953   -200.000000  -26375.00000     85.842079
   12907           0       870.613953   -200.000000  -26625.00000     46.683189
   12908           0       870.613953   -200.000000  -26875.00000     31.992613
   12909           0       870.613953   -200.000000  -27125.00000     37.953819
   12910           0       870.613953   -200.000000  -27375.00000     47.698933
   12911           0       870.613953   -200.000000  -27625.00000     55.086197
   12912           0       870.613953   -200.000000  -27875.00000     59.370113
   12913           0       870.613953   -200.000000  -28125.00000     60.654457
   12914           0       870.613953   -200.000000  -28375.00000     58.984161
   12915           0       870.613953   -200.000000  -28625.00000     54.194500
   12916           0       870.613953   -200.000000  -28875.00000     46.112091
   12917           0       870.613953   -200.000000  -29125.00000     35.627472
   12918           0       870.613953   -200.000000  -29375.00000     30.922428
   12919           0       870.613953   -200.000000  -29625.00000     50.441765
   12920           0       870.613953   -200.000000  -29875.00000     93.889145
   12921           0       621.867126   -200.000000  -26125.00000    162.901596
   12922           0       621.867126   -200.000000  -26375.00000     96.758476
   12923           0       621.867126   -200.000000  -26625.00000     49.247314
   12924           0       621.867126   -200.000000  -26875.00000     24.506985
   12925           0       621.867126   -200.000000  -27125.00000     31.964991
   12926           0       621.867126   -200.000000  -27375.00000     46.724129
   12927           0       621.867126   -200.000000  -27625.00000     57.725620
   12928           0       621.867126   -200.000000  -27875.00000     64.117317
   12929           0       621.867126   -200.000000  -28125.00000     66.051994
   12930           0       621.867126   -200.000000  -28375.00000     63.598591
   12931           0       621.867126   -200.000000  -28625.00000     56.614609
   12932           0       621.867126   -200.000000  -28875.00000     44.902321
   12933           0       621.867126   -200.000000  -29125.00000     29.635408
   12934           0       621.867126   -200.000000  -29375.00000     25.140600
   12935           0       621.867126   -200.000000  -29625.00000     54.088352
   12936           0       621.867126   -200.000000  -29875.00000    103.690109
   12937           0       373.120270   -200.000000  -26125.00000    174.028091
   12938           0       373.120270   -200.000000  -26375.00000    104.295990
   12939           0       373.120270   -200.000000  -26625.00000     51.688732
   12940           0       373.120270   -200.000000  -26875.00000     18.190903
   12941           0       373.120270   -200.000000  -27125.00000     26.917736
   12942           0       373.120270   -200.000000  -27375.00000     45.858730
   12943           0       373.120270   -200.000000  -27625.00000     59.388988
   12944           0       373.120270   -200.000000  -27875.00000     67.179207
   12945           0       373.120270   -200.000000  -28125.00000     69.541039
   12946           0       373.120270   -200.000000  -28375.00000     66.586952
   12947           0       373.120270   -200.000000  -28625.00000     58.162991
   12948           0       373.120270   -200.000000  -28875.00000     43.963764
   12949           0       373.120270   -200.000000  -29125.00000     24.749823
   12950           0       373.120270   -200.000000  -29375.00000     20.870432
   12951           0       373.120270   -200.000000  -29625.00000     56.858257
   12952           0       373.120270   -200.000000  -29875.00000    110.068863
   12953           0       124.373421   -200.000000  -26125.00000    179.629974
   12954           0       124.373421   -200.000000  -26375.00000    108.173904
   12955           0       124.373421   -200.000000  -26625.00000     53.169285
   12956           0       124.373421   -200.000000  -26875.00000     14.312618
   12957           0       124.373421   -200.000000  -27125.00000     23.944050
   12958           0       124.373421   -200.000000  -27375.00000     45.375183
   12959           0       124.373421   -200.000000  -27625.00000     60.198753
   12960           0       124.373421   -200.000000  -27875.00000     68.686310
   12961           0       124.373421   -200.000000  -28125.00000     71.260704
   12962           0       124.373421   -200.000000  -28375.00000     68.062325
   12963           0       124.373421   -200.000000  -28625.00000     58.929344
   12964           0       124.373421   -200.000000  -28875.00000     43.471668
   12965           0       124.373421   -200.000000  -29125.00000     21.914753
   12966           0       124.373421   -200.000000  -29375.00000     18.568430
   12967           0       124.373421   -200.000000  -29625.00000     58.328941
   12968           0       124.373421   -200.000000  -29875.00000    113.203476
   12969           0      -124.373421   -200.000000  -26125.00000    179.726883
   12970           0      -124.373421   -200.000000  -26375.00000    108.271378
   12971           0      -124.373421   -200.000000  -26625.00000     53.274693
   12972           0      -124.373421   -200.000000  -26875.00000     14.486888
   12973           0      -124.373421   -200.000000  -27125.00000     23.979956
   12974           0      -124.373421   -200.000000  -27375.00000     45.378819
   12975           0      -124.373421   -200.000000  -27625.00000     60.198654
   12976           0      -124.373421   -200.000000  -27875.00000     68.687096
   12977           0      -124.373421   -200.000000  -28125.00000     71.263329
   12978           0      -124.373421   -200.000000  -28375.00000     68.066856
   12979           0      -124.373421   -200.000000  -28625.00000     58.935760
   12980           0      -124.373421   -200.000000  -28875.00000     43.480328
   12981           0      -124.373421   -200.000000  -29125.00000     21.928015
   12982           0      -124.373421   -200.000000  -29375.00000     18.575056
   12983           0      -124.373421   -200.000000  -29625.00000     58.327030
   12984           0      -124.373421   -200.000000  -29875.00000    113.200127
   12985           0      -373.120270   -200.000000  -26125.00000    174.309219
   12986           0      -373.120270   -200.000000  -26375.00000    104.575836
   12987           0      -373.120270   -200.000000  -26625.00000     51.980667
   12988           0      -373.120270   -200.000000  -26875.00000     18.543901
   12989           0      -373.120270   -200.000000  -27125.00000     26.995050
   12990           0      -373.120270   -200.000000  -27375.00000     45.866787
   12991           0      -373.120270   -200.000000  -27625.00000     59.389633
   12992           0      -373.120270   -200.000000  -27875.00000     67.183342
   12993           0      -373.120270   -200.000000  -28125.00000     69.550499
   12994           0      -373.120270   -200.000000  -28375.00000     66.601654
   12995           0      -373.120270   -200.000000  -28625.00000     58.182732
   12996           0      -373.120270   -200.000000  -28875.00000     43.989147
   12997           0      -373.120270   -200.000000  -29125.00000     24.784523
   12998           0      -373.120270   -200.000000  -29375.00000     20.888353
   12999           0      -373.120270   -200.000000  -29625.00000     56.853016
   13000           0      -373.120270   -200.000000  -29875.00000    110.059196
   13001           0      -621.867126   -200.000000  -26125.00000    163.336411
   13002           0      -621.867126   -200.000000  -26375.00000     97.179604
   13003           0      -621.867126   -200.000000  -26625.00000     49.645679
   13004           0      -621.867126   -200.000000  -26875.00000     24.808542
   13005           0      -621.867126   -200.000000  -27125.00000     32.023628
   13006           0      -621.867126   -200.000000  -27375.00000     46.727859
   13007           0      -621.867126   -200.000000  -27625.00000     57.728951
   13008           0      -621.867126   -200.000000  -27875.00000     64.129013
   13009           0      -621.867126   -200.000000  -28125.00000     66.072121
   13010           0      -621.867126   -200.000000  -28375.00000     63.625881
   13011           0      -621.867126   -200.000000  -28625.00000     56.648190
   13012           0      -621.867126   -200.000000  -28875.00000     44.942200
   13013           0      -621.867126   -200.000000  -29125.00000     29.681614
   13014           0      -621.867126   -200.000000  -29375.00000     25.165739
   13015           0      -621.867126   -200.000000  -29625.00000     54.081261
   13016           0      -621.867126   -200.000000  -29875.00000    103.675323
   13017           0      -870.613953   -200.000000  -26125.00000    146.751511
   13018           0      -870.613953   -200.000000  -26375.00000     86.324081
   13019           0      -870.613953   -200.000000  -26625.00000     47.035694
   13020           0      -870.613953   -200.000000  -26875.00000     32.112850
   13021           0      -870.613953   -200.000000  -27125.00000     37.942802
   13022           0      -870.613953   -200.000000  -27375.00000     47.685322
   13023           0      -870.613953   -200.000000  -27625.00000     55.092373
   13024           0      -870.613953   -200.000000  -27875.00000     59.393131
   13025           0      -870.613953   -200.000000  -28125.00000     60.688705
   13026           0      -870.613953   -200.000000  -28375.00000     59.025513
   13027           0      -870.613953   -200.000000  -28625.00000     54.240543
   13028           0      -870.613953   -200.000000  -28875.00000     46.161312
   13029           0      -870.613953   -200.000000  -29125.00000     35.676327
   13030           0      -870.613953   -200.000000  -29375.00000     30.950262
   13031           0      -870.613953   -200.000000  -29625.00000     50.435429
   13032           0      -870.613953   -200.000000  -29875.00000     93.871536
   13033           0     -1119.360840   -200.000000  -26125.00000    124.523750
   13034           0     -1119.360840   -200.000000  -26375.00000     72.516533
   13035           0     -1119.360840   -200.000000  -26625.00000     45.228340
   13036           0     -1119.360840   -200.000000  -26875.00000     39.662708
   13037           0     -1119.360840   -200.000000  -27125.00000     43.704323
   13038           0     -1119.360840   -200.000000  -27375.00000     48.253811
   13039           0     -1119.360840   -200.000000  -27625.00000     51.209869
   13040           0     -1119.360840   -200.000000  -27875.00000     52.696663
   13041           0     -1119.360840   -200.000000  -28125.00000     53.103722
   13042           0     -1119.360840   -200.000000  -28375.00000     52.539543
   13043           0     -1119.360840   -200.000000  -28625.00000     50.752396
   13044           0     -1119.360840   -200.000000  -28875.00000     47.213226
   13045           0     -1119.360840   -200.000000  -29125.00000     41.890236
   13046           0     -1119.360840   -200.000000  -29375.00000     37.710079
   13047           0     -1119.360840   -200.000000  -29625.00000     46.725708
   13048           0     -1119.360840   -200.000000  -29875.00000     80.436371
   13049           0     -1368.107666   -200.000000  -26125.00000     96.708717
   13050           0     -1368.107666   -200.000000  -26375.00000     56.818348
   13051           0     -1368.107666   -200.000000  -26625.00000     45.144241
   13052           0     -1368.107666   -200.000000  -26875.00000     46.478489
   13053           0     -1368.107666   -200.000000  -27125.00000     48.263428
   13054           0     -1368.107666   -200.000000  -27375.00000     47.755123
   13055           0     -1368.107666   -200.000000  -27625.00000     45.675579
   13056           0     -1368.107666   -200.000000  -27875.00000     43.559505
   13057           0     -1368.107666   -200.000000  -28125.00000     42.750027
   13058           0     -1368.107666   -200.000000  -28375.00000     43.736015
   13059           0     -1368.107666   -200.000000  -28625.00000     45.790237
   13060           0     -1368.107666   -200.000000  -28875.00000     47.476921
   13061           0     -1368.107666   -200.000000  -29125.00000     47.185371
   13062           0     -1368.107666   -200.000000  -29375.00000     44.652714
   13063           0     -1368.107666   -200.000000  -29625.00000     44.234009
   13064           0     -1368.107666   -200.000000  -29875.00000     63.323006
   13065           0     -1616.854492   -200.000000  -26125.00000     63.652790
   13066           0     -1616.854492   -200.000000  -26375.00000     41.440159
   13067           0     -1616.854492   -200.000000  -26625.00000     46.547035
   13068           0     -1616.854492   -200.000000  -26875.00000     51.197025
   13069           0     -1616.854492   -200.000000  -27125.00000     50.674919
   13070           0     -1616.854492   -200.000000  -27375.00000     45.623398
   13071           0     -1616.854492   -200.000000  -27625.00000     38.295918
   13072           0     -1616.854492   -200.000000  -27875.00000     31.420895
   13073           0     -1616.854492   -200.000000  -28125.00000     28.724066
   13074           0     -1616.854492   -200.000000  -28375.00000     32.120937
   13075           0     -1616.854492   -200.000000  -28625.00000     39.163654
   13076           0     -1616.854492   -200.000000  -28875.00000     46.237179
   13077           0     -1616.854492   -200.000000  -29125.00000     50.469227
   13078           0     -1616.854492   -200.000000  -29375.00000     50.067200
   13079           0     -1616.854492   -200.000000  -29625.00000     44.044876
   13080           0     -1616.854492   -200.000000  -29875.00000     43.049194
   13081           0     -1865.601318   -200.000000  -26125.00000     25.881376
   13082           0     -1865.601318   -200.000000  -26375.00000     31.285719
   13083           0     -1865.601318   -200.000000  -26625.00000     46.894543
   13084           0     -1865.601318   -200.000000  -26875.00000     53.002449
   13085           0     -1865.601318   -200.000000  -27125.00000     50.566212
   13086           0     -1865.601318   -200.000000  -27375.00000     42.638916
   13087           0     -1865.601318   -200.000000  -27625.00000     30.880861
   13088           0     -1865.601318   -200.000000  -27875.00000     17.685946
   13089           0     -1865.601318   -200.000000  -28125.00000      9.778643
   13090           0     -1865.601318   -200.000000  -28375.00000     19.251087
   13091           0     -1865.601318   -200.000000  -28625.00000     32.507092
   13092           0     -1865.601318   -200.000000  -28875.00000     43.738361
   13093           0     -1865.601318   -200.000000  -29125.00000     51.285122
   13094           0     -1865.601318   -200.000000  -29375.00000     51.997898
   13095           0     -1865.601318   -200.000000  -29625.00000     44.855209
   13096           0     -1865.601318   -200.000000  -29875.00000     23.969696
   13097           0      1865.601318   -200.000000  -13625.00000     28.084419
   13098           0      1865.601318   -200.000000  -13875.00000     81.618866
   13099           0      1865.601318   -200.000000  -14125.00000    111.951836
   13100           0      1865.601318   -200.000000  -14375.00000    127.906273
   13101           0      1865.601318   -200.000000  -14625.00000    134.492462
   13102           0      1865.601318   -200.000000  -14875.00000    134.651077
   13103           0      1865.601318   -200.000000  -15125.00000    130.531570
   13104           0      1865.601318   -200.000000  -15375.00000    123.685226
   13105           0      1865.601318   -200.000000  -15625.00000    115.239822
   13106           0      1865.601318   -200.000000  -15875.00000    106.008240
   13107           0      1865.601318   -200.000000  -16125.00000     96.570107
   13108           0      1865.601318   -200.000000  -16375.00000     87.326080
   13109           0      1865.601318   -200.000000  -16625.00000     78.547211
   13110           0      1865.601318   -200.000000  -16875.00000     70.405975
   13111           0      1865.601318   -200.000000  -17125.00000     63.005733
   13112           0      1865.601318   -200.000000  -17375.00000     56.398151
   13113           0      1865.601318   -200.000000  -17625.00000     50.600212
   13114           0      1865.601318   -200.000000  -17875.00000     45.603233
   13115           0      1865.601318   -200.000000  -18125.00000     41.382011
   13116           0      1865.601318   -200.000000  -18375.00000     37.899246
   13117           0      1865.601318   -200.000000  -18625.00000     35.110477
   13118           0      1865.601318   -200.000000  -18875.00000     32.967216
   13119           0      1865.601318   -200.000000  -19125.00000     31.421099
   13120           0      1865.601318   -200.000000  -19375.00000     30.427958
   13121           0      1865.601318   -200.000000  -19625.00000     29.952217
   13122           0      1865.601318   -200.000000  -19875.00000     29.970907
   13123           0      1865.601318   -200.000000  -20125.00000     30.476009
   13124           0      1865.601318   -200.000000  -20375.00000     31.475571
   13125           0      1865.601318   -200.000000  -20625.00000     32.992142
   13126           0      1865.601318   -200.000000  -20875.00000     35.060612
   13127           0      1865.601318   -200.000000  -21125.00000     37.723934
   13128           0      1865.601318   -200.000000  -21375.00000     41.029800
   13129           0      1865.601318   -200.000000  -21625.00000     45.025772
   13130           0      1865.601318   -200.000000  -21875.00000     49.756241
   13131           0      1865.601318   -200.000000  -22125.00000     55.257206
   13132           0      1865.601318   -200.000000  -22375.00000     61.551777
   13133           0      1865.601318   -200.000000  -22625.00000     68.643456
   13134           0      1865.601318   -200.000000  -22875.00000     76.505333
   13135           0      1865.601318   -200.000000  -23125.00000     85.072586
   13136           0      1865.601318   -200.000000  -23375.00000     94.214447
   13137           0      1865.601318   -200.000000  -23625.00000    103.735703
   13138           0      1865.601318   -200.000000  -23875.00000    113.301842
   13139           0      1865.601318   -200.000000  -24125.00000    122.488533
   13140           0      1865.601318   -200.000000  -24375.00000    130.571991
   13141           0      1865.601318   -200.000000  -24625.00000    136.760269
   13142           0      1865.601318   -200.000000  -24875.00000    139.572601
   13143           0      1865.601318   -200.000000  -25125.00000    137.667725
   13144           0      1865.601318   -200.000000  -25375.00000    128.017258
   13145           0      1865.601318   -200.000000  -25625.00000    108.254318
   13146           0      1865.601318   -200.000000  -25875.00000     72.882576
   13147           0      1616.854492   -200.000000  -13625.00000     68.876709
   13148           0      1616.854492   -200.000000  -13875.00000     79.364227
   13149           0      1616.854492   -200.000000  -14125.00000    105.553345
   13150           0      1616.854492   -200.000000  -14375.00000    121.983208
   13151           0      1616.854492   -200.000000  -14625.00000    130.146149
   13152           0      1616.854492   -200.000000  -14875.00000    132.329865
   13153           0      1616.854492   -200.000000  -15125.00097    130.573730
   13154           0      1616.854492   -200.000000  -15375.00097    126.376030
   13155           0      1616.854492   -200.000000  -15625.00097    120.873726
   13156           0      1616.854492   -200.000000  -15875.00097    114.883575
   13157           0      1616.854492   -200.000000  -16125.00097    108.979996
   13158           0      1616.854492   -200.000000  -16375.00000    103.542892
   13159           0      1616.854492   -200.000000  -16625.00000     98.795349
   13160           0      1616.854492   -200.000000  -16875.00000     94.840256
   13161           0      1616.854492   -200.000000  -17125.00000     91.687004
   13162           0      1616.854492   -200.000000  -17375.00000     89.281883
   13163           0      1616.854492   -200.000000  -17625.00000     87.530983
   13164           0      1616.854492   -200.000000  -17875.00000     86.322884
   13165           0      1616.854492   -200.000000  -18125.00000     85.543777
   13166           0      1616.854492   -200.000000  -18375.00000     85.088730
   13167           0      1616.854492   -200.000000  -18625.00000     84.867271
   13168           0      1616.854492   -200.000000  -18875.00000     84.805817
   13169           0      1616.854492   -200.000000  -19125.00000     84.847595
   13170           0      1616.854492   -200.000000  -19375.00000     84.951454
   13171           0      1616.854492   -200.000000  -19625.00000     85.090401
   13172           0      1616.854492   -200.000000  -19875.00000     85.250069
   13173           0      1616.854492   -200.000000  -20125.00000     85.428062
   13174           0      1616.854492   -200.000000  -20375.00000     85.633400
   13175           0      1616.854492   -200.000000  -20625.00000     85.887123
   13176           0      1616.854492   -200.000000  -20875.00000     86.222923
   13177           0      1616.854492   -200.000000  -21125.00000     86.688614
   13178           0      1616.854492   -200.000000  -21375.00000     87.347008
   13179           0      1616.854492   -200.000000  -21625.00000     88.276772
   13180           0      1616.854492   -200.000000  -21875.00000     89.571022
   13181           0      1616.854492   -200.000000  -22125.00000     91.334213
   13182           0      1616.854492   -200.000000  -22375.00000     93.674240
   13183           0      1616.854492   -200.000000  -22625.00000     96.690895
   13184           0      1616.854492   -200.000000  -22875.00000    100.458946
   13185           0      1616.854492   -200.000000  -23125.00000    105.005486
   13186           0      1616.854492   -200.000000  -23375.00000    110.289215
   13187           0      1616.854492   -200.000000  -23625.00000    116.163246
   13188           0      1616.854492   -200.000000  -23875.00000    122.366051
   13189           0      1616.854492   -200.000000  -24125.00000    128.445282
   13190           0      1616.854492   -200.000000  -24375.00000    133.799789
   13191           0      1616.854492   -200.000000  -24625.00000    137.478790
   13192           0      1616.854492   -200.000000  -24875.00000    138.408264
   13193           0      1616.854492   -200.000000  -25125.00000    134.859741
   13194           0      1616.854492   -200.000000  -25375.00000    125.380211
   13195           0      1616.854492   -200.000000  -25625.00000    108.297798
   13196           0      1616.854492   -200.000000  -25875.00000     90.223679
   13197           0      1368.107666   -200.000000  -13625.00000    111.945557
   13198           0      1368.107666   -200.000000  -13875.00000     89.262604
   13199           0      1368.107666   -200.000000  -14125.00000     97.675217
   13200           0      1368.107666   -200.000000  -14375.00000    111.343689
   13201           0      1368.107666   -200.000000  -14625.00000    120.913399
   13202           0      1368.107666   -200.000000  -14875.00000    126.273849
   13203           0      1368.107666   -200.000000  -15125.00097    128.480499
   13204           0      1368.107666   -200.000000  -15375.00097    128.761520
   13205           0      1368.107666   -200.000000  -15625.00097    128.041229
   13206           0      1368.107666   -200.000000  -15875.00097    126.993179
   13207           0      1368.107666   -200.000000  -16125.00097    126.037689
   13208           0      1368.107666   -200.000000  -16375.00000    125.404472
   13209           0      1368.107666   -200.000000  -16625.00000    125.180298
   13210           0      1368.107666   -200.000000  -16875.00000    125.357338
   13211           0      1368.107666   -200.000000  -17125.00000    125.874283
   13212           0      1368.107666   -200.000000  -17375.00000    126.645157
   13213           0      1368.107666   -200.000000  -17625.00000    127.580460
   13214           0      1368.107666   -200.000000  -17875.00000    128.597961
   13215           0      1368.107666   -200.000000  -18125.00000    129.628525
   13216           0      1368.107666   -200.000000  -18375.00000    130.617096
   13217           0      1368.107666   -200.000000  -18625.00000    131.522171
   13218           0      1368.107666   -200.000000  -18875.00000    132.313553
   13219           0      1368.107666   -200.000000  -19125.00000    132.970306
   13220           0      1368.107666   -200.000000  -19375.00000    133.478699
   13221           0      1368.107666   -200.000000  -19625.00000    133.830475
   13222           0      1368.107666   -200.000000  -19875.00000    134.021851
   13223           0      1368.107666   -200.000000  -20125.00000    134.052643
   13224           0      1368.107666   -200.000000  -20375.00000    133.926270
   13225           0      1368.107666   -200.000000  -20625.00000    133.649948
   13226           0      1368.107666   -200.000000  -20875.00000    133.235764
   13227           0      1368.107666   -200.000000  -21125.00000    132.701752
   13228           0      1368.107666   -200.000000  -21375.00000    132.073959
   13229           0      1368.107666   -200.000000  -21625.00000    131.388123
   13230           0      1368.107666   -200.000000  -21875.00000    130.691879
   13231           0      1368.107666   -200.000000  -22125.00000    130.046021
   13232           0      1368.107666   -200.000000  -22375.00000    129.524582
   13233           0      1368.107666   -200.000000  -22625.00000    129.211487
   13234           0      1368.107666   -200.000000  -22875.00000    129.193268
   13235           0      1368.107666   -200.000000  -23125.00000    129.544418
   13236           0      1368.107666   -200.000000  -23375.00000    130.304047
   13237           0      1368.107666   -200.000000  -23625.00000    131.445633
   13238           0      1368.107666   -200.000000  -23875.00000    132.831787
   13239           0      1368.107666   -200.000000  -24125.00000    134.180176
   13240           0      1368.107666   -200.000000  -24375.00000    134.999100
   13241           0      1368.107666   -200.000000  -24625.00000    134.595398
   13242           0      1368.107666   -200.000000  -24875.00000    132.023987
   13243           0      1368.107666   -200.000000  -25125.00000    126.349602
   13244           0      1368.107666   -200.000000  -25375.00000    117.202385
   13245           0      1368.107666   -200.000000  -25625.00000    107.654968
   13246           0      1368.107666   -200.000000  -25875.00000    112.769272
   13247           0      1119.360840   -200.000000  -13625.00000    150.125656
   13248           0      1119.360840   -200.000000  -13875.00000    104.496559
   13249           0      1119.360840   -200.000000  -14125.00000     92.052475
   13250           0      1119.360840   -200.000000  -14375.00000     97.882668
   13251           0      1119.360840   -200.000000  -14625.00000    107.844414
   13252           0      1119.360840   -200.000000  -14875.00000    116.668411
   13253           0      1119.360840   -200.000000  -15125.00097    123.694748
   13254           0      1119.360840   -200.000000  -15375.00097    129.278259
   13255           0      1119.360840   -200.000000  -15625.00097    133.959473
   13256           0      1119.360840   -200.000000  -15875.00097    138.129868
   13257           0      1119.360840   -200.000000  -16125.00097    142.033707
   13258           0      1119.360840   -200.000000  -16375.00000    145.784348
   13259           0      1119.360840   -200.000000  -16625.00000    149.412430
   13260           0      1119.360840   -200.000000  -16875.00000    152.902084
   13261           0      1119.360840   -200.000000  -17125.00000    156.217010
   13262           0      1119.360840   -200.000000  -17375.00000    159.317932
   13263           0      1119.360840   -200.000000  -17625.00000    162.170288
   13264           0      1119.360840   -200.000000  -17875.00000    164.748367
   13265           0      1119.360840   -200.000000  -18125.00000    167.035263
   13266           0      1119.360840   -200.000000  -18375.00000    169.021988
   13267           0      1119.360840   -200.000000  -18625.00000    170.705414
   13268           0      1119.360840   -200.000000  -18875.00000    172.086380
   13269           0      1119.360840   -200.000000  -19125.00000    173.167999
   13270           0      1119.360840   -200.000000  -19375.00000    173.954163
   13271           0      1119.360840   -200.000000  -19625.00000    174.448502
   13272           0      1119.360840   -200.000000  -19875.00000    174.653595
   13273           0      1119.360840   -200.000000  -20125.00000    174.570541
   13274           0      1119.360840   -200.000000  -20375.00000    174.199036
   13275           0      1119.360840   -200.000000  -20625.00000    173.537445
   13276           0      1119.360840   -200.000000  -20875.00000    172.583435
   13277           0      1119.360840   -200.000000  -21125.00000    171.334946
   13278           0      1119.360840   -200.000000  -21375.00000    169.791367
   13279           0      1119.360840   -200.000000  -21625.00000    167.955246
   13280           0      1119.360840   -200.000000  -21875.00000    165.833954
   13281           0      1119.360840   -200.000000  -22125.00000    163.441879
   13282           0      1119.360840   -200.000000  -22375.00000    160.801788
   13283           0      1119.360840   -200.000000  -22625.00000    157.945511
   13284           0      1119.360840   -200.000000  -22875.00000    154.912445
   13285           0      1119.360840   -200.000000  -23125.00000    151.743729
   13286           0      1119.360840   -200.000000  -23375.00000    148.472046
   13287           0      1119.360840   -200.000000  -23625.00000    145.099564
   13288           0      1119.360840   -200.000000  -23875.00000    141.574020
   13289           0      1119.360840   -200.000000  -24125.00000    137.744110
   13290           0      1119.360840   -200.000000  -24375.00000    133.344437
   13291           0      1119.360840   -200.000000  -24625.00000    127.973808
   13292           0      1119.360840   -200.000000  -24875.00000    121.263512
   13293           0      1119.360840   -200.000000  -25125.00000    113.318672
   13294           0      1119.360840   -200.000000  -25375.00000    106.346901
   13295           0      1119.360840   -200.000000  -25625.00000    108.414429
   13296           0      1119.360840   -200.000000  -25875.00000    134.499466
   13297           0       870.613953   -200.000000  -13625.00000    181.938995
   13298           0       870.613953   -200.000000  -13875.00000    120.652985
   13299           0       870.613953   -200.000000  -14125.00000     89.130592
   13300           0       870.613953   -200.000000  -14375.00000     83.838081
   13301           0       870.613953   -200.000000  -14625.00000     92.507088
   13302           0       870.613953   -200.000000  -14875.00000    104.863937
   13303           0       870.613953   -200.000000  -15125.00097    116.992073
   13304           0       870.613953   -200.000000  -15375.00097    128.035141
   13305           0       870.613953   -200.000000  -15625.00097    137.961517
   13306           0       870.613953   -200.000000  -15875.00097    146.930008
   13307           0       870.613953   -200.000000  -16125.00097    155.075882
   13308           0       870.613953   -200.000000  -16375.00000    162.492096
   13309           0       870.613953   -200.000000  -16625.00000    169.233307
   13310           0       870.613953   -200.000000  -16875.00000    175.333008
   13311           0       870.613953   -200.000000  -17125.00000    180.815338
   13312           0       870.613953   -200.000000  -17375.00000    185.701950
   13313           0       870.613953   -200.000000  -17625.00000    190.015579
   13314           0       870.613953   -200.000000  -17875.00000    193.780945
   13315           0       870.613953   -200.000000  -18125.00000    197.024200
   13316           0       870.613953   -200.000000  -18375.00000    199.771896
   13317           0       870.613953   -200.000000  -18625.00000    202.049713
   13318           0       870.613953   -200.000000  -18875.00000    203.881256
   13319           0       870.613953   -200.000000  -19125.00000    205.286987
   13320           0       870.613953   -200.000000  -19375.00000    206.283478
   13321           0       870.613953   -200.000000  -19625.00000    206.882736
   13322           0       870.613953   -200.000000  -19875.00000    207.091934
   13323           0       870.613953   -200.000000  -20125.00000    206.913086
   13324           0       870.613953   -200.000000  -20375.00000    206.343094
   13325           0       870.613953   -200.000000  -20625.00000    205.373856
   13326           0       870.613953   -200.000000  -20875.00000    203.992630
   13327           0       870.613953   -200.000000  -21125.00000    202.182556
   13328           0       870.613953   -200.000000  -21375.00000    199.923355
   13329           0       870.613953   -200.000000  -21625.00000    197.192383
   13330           0       870.613953   -200.000000  -21875.00000    193.965820
   13331           0       870.613953   -200.000000  -22125.00000    190.219955
   13332           0       870.613953   -200.000000  -22375.00000    185.932617
   13333           0       870.613953   -200.000000  -22625.00000    181.084122
   13334           0       870.613953   -200.000000  -22875.00000    175.657486
   13335           0       870.613953   -200.000000  -23125.00000    169.636993
   13336           0       870.613953   -200.000000  -23375.00000    163.003143
   13337           0       870.613953   -200.000000  -23625.00000    155.725998
   13338           0       870.613953   -200.000000  -23875.00000    147.750305
   13339           0       870.613953   -200.000000  -24125.00000    138.990036
   13340           0       870.613953   -200.000000  -24375.00000    129.331589
   13341           0       870.613953   -200.000000  -24625.00000    118.733559
   13342           0       870.613953   -200.000000  -24875.00000    107.563469
   13343           0       870.613953   -200.000000  -25125.00000     97.659256
   13344           0       870.613953   -200.000000  -25375.00000     94.835503
   13345           0       870.613953   -200.000000  -25625.00000    110.192207
   13346           0       870.613953   -200.000000  -25875.00000    152.976807
   13347           0       621.867126   -200.000000  -13625.00000    206.876160
   13348           0       621.867126   -200.000000  -13875.00000    135.127197
   13349           0       621.867126   -200.000000  -14125.00000     88.939484
   13350           0       621.867126   -200.000000  -14375.00000     71.051834
   13351           0       621.867126   -200.000000  -14625.00000     77.055351
   13352           0       621.867126   -200.000000  -14875.00000     92.782524
   13353           0       621.867126   -200.000000  -15125.00097    109.885498
   13354           0       621.867126   -200.000000  -15375.00097    125.896606
   13355           0       621.867126   -200.000000  -15625.00097    140.344650
   13356           0       621.867126   -200.000000  -15875.00097    153.257904
   13357           0       621.867126   -200.000000  -16125.00097    164.774597
   13358           0       621.867126   -200.000000  -16375.00000    175.030075
   13359           0       621.867126   -200.000000  -16625.00000    184.140823
   13360           0       621.867126   -200.000000  -16875.00000    192.204865
   13361           0       621.867126   -200.000000  -17125.00000    199.307022
   13362           0       621.867126   -200.000000  -17375.00000    205.523529
   13363           0       621.867126   -200.000000  -17625.00000    210.923859
   13364           0       621.867126   -200.000000  -17875.00000    215.572037
   13365           0       621.867126   -200.000000  -18125.00000    219.526596
   13366           0       621.867126   -200.000000  -18375.00000    222.840454
   13367           0       621.867126   -200.000000  -18625.00000    225.560226
   13368           0       621.867126   -200.000000  -18875.00000    227.726028
   13369           0       621.867126   -200.000000  -19125.00000    229.370819
   13370           0       621.867126   -200.000000  -19375.00000    230.520294
   13371           0       621.867126   -200.000000  -19625.00000    231.192566
   13372           0       621.867126   -200.000000  -19875.00000    231.397964
   13373           0       621.867126   -200.000000  -20125.00000    231.139191
   13374           0       621.867126   -200.000000  -20375.00000    230.410980
   13375           0       621.867126   -200.000000  -20625.00000    229.200684
   13376           0       621.867126   -200.000000  -20875.00000    227.487778
   13377           0       621.867126   -200.000000  -21125.00000    225.244720
   13378           0       621.867126   -200.000000  -21375.00000    222.436646
   13379           0       621.867126   -200.000000  -21625.00000    219.022446
   13380           0       621.867126   -200.000000  -21875.00000    214.954849
   13381           0       621.867126   -200.000000  -22125.00000    210.181244
   13382           0       621.867126   -200.000000  -22375.00000    204.644211
   13383           0       621.867126   -200.000000  -22625.00000    198.281876
   13384           0       621.867126   -200.000000  -22875.00000    191.027924
   13385           0       621.867126   -200.000000  -23125.00000    182.810242
   13386           0       621.867126   -200.000000  -23375.00000    173.549194
   13387           0       621.867126   -200.000000  -23625.00000    163.152893
   13388           0       621.867126   -200.000000  -23875.00000    151.517181
   13389           0       621.867126   -200.000000  -24125.00000    138.531250
   13390           0       621.867126   -200.000000  -24375.00000    124.135857
   13391           0       621.867126   -200.000000  -24625.00000    108.522232
   13392           0       621.867126   -200.000000  -24875.00000     92.830612
   13393           0       621.867126   -200.000000  -25125.00000     81.219994
   13394           0       621.867126   -200.000000  -25375.00000     84.010620
   13395           0       621.867126   -200.000000  -25625.00000    112.258072
   13396           0       621.867126   -200.000000  -25875.00000    167.202499
   13397           0       373.120270   -200.000000  -13625.00000    224.613068
   13398           0       373.120270   -200.000000  -13875.00000    146.494003
   13399           0       373.120270   -200.000000  -14125.00000     90.894676
   13400           0       373.120270   -200.000000  -14375.00000     62.001572
   13401           0       373.120270   -200.000000  -14625.00000     64.346848
   13402           0       373.120270   -200.000000  -14875.00000     82.980286
   13403           0       373.120270   -200.000000  -15125.00097    104.161171
   13404           0       373.120270   -200.000000  -15375.00097    123.974510
   13405           0       373.120270   -200.000000  -15625.00097    141.706833
   13406           0       373.120270   -200.000000  -15875.00097    157.398483
   13407           0       373.120270   -200.000000  -16125.00097    171.238495
   13408           0       373.120270   -200.000000  -16375.00000    183.425461
   13409           0       373.120270   -200.000000  -16625.00000    194.134583
   13410           0       373.120270   -200.000000  -16875.00000    203.516846
   13411           0       373.120270   -200.000000  -17125.00000    211.703125
   13412           0       373.120270   -200.000000  -17375.00000    218.808212
   13413           0       373.120270   -200.000000  -17625.00000    224.933960
   13414           0       373.120270   -200.000000  -17875.00000    230.170914
   13415           0       373.120270   -200.000000  -18125.00000    234.599274
   13416           0       373.120270   -200.000000  -18375.00000    238.289261
   13417           0       373.120270   -200.000000  -18625.00000    241.301453
   13418           0       373.120270   -200.000000  -18875.00000    243.686722
   13419           0       373.120270   -200.000000  -19125.00000    245.486298
   13420           0       373.120270   -200.000000  -19375.00000    246.731857
   13421           0       373.120270   -200.000000  -19625.00000    247.445435
   13422           0       373.120270   -200.000000  -19875.00000    247.639496
   13423           0       373.120270   -200.000000  -20125.00000    247.317123
   13424           0       373.120270   -200.000000  -20375.00000    246.471649
   13425           0       373.120270   -200.000000  -20625.00000    245.087128
   13426           0       373.120270   -200.000000  -20875.00000    243.138031
   13427           0       373.120270   -200.000000  -21125.00000    240.589417
   13428           0       373.120270   -200.000000  -21375.00000    237.396881
   13429           0       373.120270   -200.000000  -21625.00000    233.506714
   13430           0       373.120270   -200.000000  -21875.00000    228.855896
   13431           0       373.120270   -200.000000  -22125.00000    223.372055
   13432           0       373.120270   -200.000000  -22375.00000    216.973373
   13433           0       373.120270   -200.000000  -22625.00000    209.568237
   13434           0       373.120270   -200.000000  -22875.00000    201.054153
   13435           0       373.120270   -200.000000  -23125.00000    191.316055
   13436           0       373.120270   -200.000000  -23375.00000    180.223068
   13437           0       373.120270   -200.000000  -23625.00000    167.625702
   13438           0       373.120270   -200.000000  -23875.00000    153.353775
   13439           0       373.120270   -200.000000  -24125.00000    137.231949
   13440           0       373.120270   -200.000000  -24375.00000    119.148270
   13441           0       373.120270   -200.000000  -24625.00000     99.335281
   13442           0       373.120270   -200.000000  -24875.00000     79.434715
   13443           0       373.120270   -200.000000  -25125.00000     66.165054
   13444           0       373.120270   -200.000000  -25375.00000     75.164551
   13445           0       373.120270   -200.000000  -25625.00000    113.881195
   13446           0       373.120270   -200.000000  -25875.00000    176.762894
   13447           0       124.373421   -200.000000  -13625.00000    235.010269
   13448           0       124.373421   -200.000000  -13875.00000    154.009079
   13449           0       124.373421   -200.000000  -14125.00000     94.199760
   13450           0       124.373421   -200.000000  -14375.00000     59.300476
   13451           0       124.373421   -200.000000  -14625.00000     58.370155
   13452           0       124.373421   -200.000000  -14875.00000     78.240456
   13453           0       124.373421   -200.000000  -15125.00097    101.494194
   13454           0       124.373421   -200.000000  -15375.00097    123.222054
   13455           0       124.373421   -200.000000  -15625.00097    142.598984
   13456           0       124.373421   -200.000000  -15875.00097    159.674820
   13457           0       124.373421   -200.000000  -16125.00097    174.671295
   13458           0       124.373421   -200.000000  -16375.00000    187.819077
   13459           0       124.373421   -200.000000  -16625.00000    199.323517
   13460           0       124.373421   -200.000000  -16875.00000    209.361954
   13461           0       124.373421   -200.000000  -17125.00000    218.087631
   13462           0       124.373421   -200.000000  -17375.00000    225.634430
   13463           0       124.373421   -200.000000  -17625.00000    232.119904
   13464           0       124.373421   -200.000000  -17875.00000    237.647598
   13465           0       124.373421   -200.000000  -18125.00000    242.308273
   13466           0       124.373421   -200.000000  -18375.00000    246.180771
   13467           0       124.373421   -200.000000  -18625.00000    249.332520
   13468           0       124.373421   -200.000000  -18875.00000    251.819611
   13469           0       124.373421   -200.000000  -19125.00000    253.687485
   13470           0       124.373421   -200.000000  -19375.00000    254.970734
   13471           0       124.373421   -200.000000  -19625.00000    255.693283
   13472           0       124.373421   -200.000000  -19875.00000    255.868652
   13473           0       124.373421   -200.000000  -20125.00000    255.499893
   13474           0       124.373421   -200.000000  -20375.00000    254.579773
   13475           0       124.373421   -200.000000  -20625.00000    253.090500
   13476           0       124.373421   -200.000000  -20875.00000    251.003876
   13477           0       124.373421   -200.000000  -21125.00000    248.281235
   13478           0       124.373421   -200.000000  -21375.00000    244.873138
   13479           0       124.373421   -200.000000  -21625.00000    240.719315
   13480           0       124.373421   -200.000000  -21875.00000    235.748566
   13481           0       124.373421   -200.000000  -22125.00000    229.878250
   13482           0       124.373421   -200.000000  -22375.00000    223.013824
   13483           0       124.373421   -200.000000  -22625.00000    215.047913
   13484           0       124.373421   -200.000000  -22875.00000    205.858566
   13485           0       124.373421   -200.000000  -23125.00000    195.306808
   13486           0       124.373421   -200.000000  -23375.00000    183.232635
   13487           0       124.373421   -200.000000  -23625.00000    169.449905
   13488           0       124.373421   -200.000000  -23875.00000    153.743759
   13489           0       124.373421   -200.000000  -24125.00000    135.879791
   13490           0       124.373421   -200.000000  -24375.00000    115.670372
   13491           0       124.373421   -200.000000  -24625.00000     93.261543
   13492           0       124.373421   -200.000000  -24875.00000     70.394684
   13493           0       124.373421   -200.000000  -25125.00000     55.724899
   13494           0       124.373421   -200.000000  -25375.00000     69.576241
   13495           0       124.373421   -200.000000  -25625.00000    114.552704
   13496           0       124.373421   -200.000000  -25875.00000    181.492371
   13497           0      -124.373421   -200.000000  -13625.00000    238.014557
   13498           0      -124.373421   -200.000000  -13875.00000    157.364944
   13499           0      -124.373421   -200.000000  -14125.00000     98.210480
   13500           0      -124.373421   -200.000000  -14375.00000     63.954773
   13501           0      -124.373421   -200.000000  -14625.00000     61.966087
   13502           0      -124.373421   -200.000000  -14875.00000     80.354919
   13503           0      -124.373421   -200.000000  -15125.00097    102.818611
   13504           0      -124.373421   -200.000000  -15375.00097    124.148666
   13505           0      -124.373421   -200.000000  -15625.00097    143.314041
   13506           0      -124.373421   -200.000000  -15875.00097    160.271332
   13507           0      -124.373421   -200.000000  -16125.00097    175.199249
   13508           0      -124.373421   -200.000000  -16375.00000    188.306030
   13509           0      -124.373421   -200.000000  -16625.00000    199.784943
   13510           0      -124.373421   -200.000000  -16875.00000    209.806259
   13511           0      -124.373421   -200.000000  -17125.00000    218.519119
   13512           0      -124.373421   -200.000000  -17375.00000    226.054810
   13513           0      -124.373421   -200.000000  -17625.00000    232.529480
   13514           0      -124.373421   -200.000000  -17875.00000    238.045624
   13515           0      -124.373421   -200.000000  -18125.00000    242.693497
   13516           0      -124.373421   -200.000000  -18375.00000    246.551697
   13517           0      -124.373421   -200.000000  -18625.00000    249.687302
   13518           0      -124.373421   -200.000000  -18875.00000    252.156525
   13519           0      -124.373421   -200.000000  -19125.00000    254.004593
   13520           0      -124.373421   -200.000000  -19375.00000    255.265930
   13521           0      -124.373421   -200.000000  -19625.00000    255.964630
   13522           0      -124.373421   -200.000000  -19875.00000    256.113983
   13523           0      -124.373421   -200.000000  -20125.00000    255.716980
   13524           0      -124.373421   -200.000000  -20375.00000    254.766098
   13525           0      -124.373421   -200.000000  -20625.00000    253.243515
   13526           0      -124.373421   -200.000000  -20875.00000    251.120728
   13527           0      -124.373421   -200.000000  -21125.00000    248.358688
   13528           0      -124.373421   -200.000000  -21375.00000    244.907700
   13529           0      -124.373421   -200.000000  -21625.00000    240.707108
   13530           0      -124.373421   -200.000000  -21875.00000    235.685211
   13531           0      -124.373421   -200.000000  -22125.00000    229.758728
   13532           0      -124.373421   -200.000000  -22375.00000    222.832504
   13533           0      -124.373421   -200.000000  -22625.00000    214.798233
   13534           0      -124.373421   -200.000000  -22875.00000    205.533020
   13535           0      -124.373421   -200.000000  -23125.00000    194.896454
   13536           0      -124.373421   -200.000000  -23375.00000    182.726669
   13537           0      -124.373421   -200.000000  -23625.00000    168.834763
   13538           0      -124.373421   -200.000000  -23875.00000    153.001312
   13539           0      -124.373421   -200.000000  -24125.00000    134.984192
   13540           0      -124.373421   -200.000000  -24375.00000    114.580963
   13541           0      -124.373421   -200.000000  -24625.00000     91.909187
   13542           0      -124.373421   -200.000000  -24875.00000     68.676064
   13543           0      -124.373421   -200.000000  -25125.00000     53.765812
   13544           0      -124.373421   -200.000000  -25375.00000     68.303635
   13545           0      -124.373421   -200.000000  -25625.00000    114.016823
   13546           0      -124.373421   -200.000000  -25875.00000    181.329239
   13547           0      -373.120270   -200.000000  -13625.00000    233.661530
   13548           0      -373.120270   -200.000000  -13875.00000    156.576050
   13549           0      -373.120270   -200.000000  -14125.00000    102.584244
   13550           0      -373.120270   -200.000000  -14375.00000     74.342484
   13551           0      -373.120270   -200.000000  -14625.00000     73.543785
   13552           0      -373.120270   -200.000000  -14875.00000     88.697113
   13553           0      -373.120270   -200.000000  -15125.00097    107.888405
   13554           0      -373.120270   -200.000000  -15375.00097    126.644470
   13555           0      -373.120270   -200.000000  -15625.00097    143.796082
   13556           0      -373.120270   -200.000000  -15875.00097    159.158249
   13557           0      -373.120270   -200.000000  -16125.00097    172.805908
   13558           0      -373.120270   -200.000000  -16375.00000    184.877533
   13559           0      -373.120270   -200.000000  -16625.00000    195.514526
   13560           0      -373.120270   -200.000000  -16875.00000    204.848206
   13561           0      -373.120270   -200.000000  -17125.00000    212.997635
   13562           0      -373.120270   -200.000000  -17375.00000    220.070465
   13563           0      -373.120270   -200.000000  -17625.00000    226.164261
   13564           0      -373.120270   -200.000000  -17875.00000    231.366913
   13565           0      -373.120270   -200.000000  -18125.00000    235.757034
   13566           0      -373.120270   -200.000000  -18375.00000    239.404114
   13567           0      -373.120270   -200.000000  -18625.00000    242.368103
   13568           0      -373.120270   -200.000000  -18875.00000    244.699646
   13569           0      -373.120270   -200.000000  -19125.00000    246.439835
   13570           0      -373.120270   -200.000000  -19375.00000    247.619980
   13571           0      -373.120270   -200.000000  -19625.00000    248.262054
   13572           0      -373.120270   -200.000000  -19875.00000    248.378265
   13573           0      -373.120270   -200.000000  -20125.00000    247.971176
   13574           0      -373.120270   -200.000000  -20375.00000    247.033844
   13575           0      -373.120270   -200.000000  -20625.00000    245.549652
   13576           0      -373.120270   -200.000000  -20875.00000    243.492386
   13577           0      -373.120270   -200.000000  -21125.00000    240.826233
   13578           0      -373.120270   -200.000000  -21375.00000    237.505814
   13579           0      -373.120270   -200.000000  -21625.00000    233.476227
   13580           0      -373.120270   -200.000000  -21875.00000    228.673035
   13581           0      -373.120270   -200.000000  -22125.00000    223.022247
   13582           0      -373.120270   -200.000000  -22375.00000    216.440125
   13583           0      -373.120270   -200.000000  -22625.00000    208.832870
   13584           0      -373.120270   -200.000000  -22875.00000    200.095154
   13585           0      -373.120270   -200.000000  -23125.00000    190.108521
   13586           0      -373.120270   -200.000000  -23375.00000    178.737488
   13587           0      -373.120270   -200.000000  -23625.00000    165.826126
   13588           0      -373.120270   -200.000000  -23875.00000    151.194489
   13589           0      -373.120270   -200.000000  -24125.00000    134.651108
   13590           0      -373.120270   -200.000000  -24375.00000    116.056671
   13591           0      -373.120270   -200.000000  -24625.00000     95.601074
   13592           0      -373.120270   -200.000000  -24875.00000     74.917694
   13593           0      -373.120270   -200.000000  -25125.00000     61.234539
   13594           0      -373.120270   -200.000000  -25375.00000     71.648621
   13595           0      -373.120270   -200.000000  -25625.00000    112.280281
   13596           0      -373.120270   -200.000000  -25875.00000    176.262146
   13597           0      -621.867126   -200.000000  -13625.00000    222.084702
   13598           0      -621.867126   -200.000000  -13875.00000    151.956787
   13599           0      -621.867126   -200.000000  -14125.00000    107.244385
   13600           0      -621.867126   -200.000000  -14375.00000     87.877075
   13601           0      -621.867126   -200.000000  -14625.00000     89.154129
   13602           0      -621.867126   -200.000000  -14875.00000    100.789902
   13603           0      -621.867126   -200.000000  -15125.00097    115.412422
   13604           0      -621.867126   -200.000000  -15375.00097    130.009659
   13605           0      -621.867126   -200.000000  -15625.00097    143.649658
   13606           0      -621.867126   -200.000000  -15875.00097    156.093246
   13607           0      -621.867126   -200.000000  -16125.00097    167.332840
   13608           0      -621.867126   -200.000000  -16375.00000    177.421127
   13609           0      -621.867126   -200.000000  -16625.00000    186.426666
   13610           0      -621.867126   -200.000000  -16875.00000    194.418762
   13611           0      -621.867126   -200.000000  -17125.00000    201.465057
   13612           0      -621.867126   -200.000000  -17375.00000    207.631104
   13613           0      -621.867126   -200.000000  -17625.00000    212.980042
   13614           0      -621.867126   -200.000000  -17875.00000    217.572098
   13615           0      -621.867126   -200.000000  -18125.00000    221.463577
   13616           0      -621.867126   -200.000000  -18375.00000    224.706116
   13617           0      -621.867126   -200.000000  -18625.00000    227.345688
   13618           0      -621.867126   -200.000000  -18875.00000    229.422043
   13619           0      -621.867126   -200.000000  -19125.00000    230.967834
   13620           0      -621.867126   -200.000000  -19375.00000    232.008545
   13621           0      -621.867126   -200.000000  -19625.00000    232.561890
   13622           0      -621.867126   -200.000000  -19875.00000    232.637970
   13623           0      -621.867126   -200.000000  -20125.00000    232.238663
   13624           0      -621.867126   -200.000000  -20375.00000    231.358231
   13625           0      -621.867126   -200.000000  -20625.00000    229.982834
   13626           0      -621.867126   -200.000000  -20875.00000    228.091019
   13627           0      -621.867126   -200.000000  -21125.00000    225.653717
   13628           0      -621.867126   -200.000000  -21375.00000    222.634750
   13629           0      -621.867126   -200.000000  -21625.00000    218.990982
   13630           0      -621.867126   -200.000000  -21875.00000    214.673157
   13631           0      -621.867126   -200.000000  -22125.00000    209.626297
   13632           0      -621.867126   -200.000000  -22375.00000    203.790375
   13633           0      -621.867126   -200.000000  -22625.00000    197.100540
   13634           0      -621.867126   -200.000000  -22875.00000    189.487289
   13635           0      -621.867126   -200.000000  -23125.00000    180.874863
   13636           0      -621.867126   -200.000000  -23375.00000    171.179428
   13637           0      -621.867126   -200.000000  -23625.00000    160.304108
   13638           0      -621.867126   -200.000000  -23875.00000    148.138184
   13639           0      -621.867126   -200.000000  -24125.00000    134.562241
   13640           0      -621.867126   -200.000000  -24375.00000    119.505867
   13641           0      -621.867126   -200.000000  -24625.00000    103.157600
   13642           0      -621.867126   -200.000000  -24875.00000     86.730484
   13643           0      -621.867126   -200.000000  -25125.00000     74.842285
   13644           0      -621.867126   -200.000000  -25375.00000     78.944710
   13645           0      -621.867126   -200.000000  -25625.00000    109.619797
   13646           0      -621.867126   -200.000000  -25875.00000    166.327789
   13647           0      -870.613953   -200.000000  -13625.00000    203.533615
   13648           0      -870.613953   -200.000000  -13875.00000    144.147232
   13649           0      -870.613953   -200.000000  -14125.00000    112.237747
   13650           0      -870.613953   -200.000000  -14375.00000    102.413841
   13651           0      -870.613953   -200.000000  -14625.00000    105.558807
   13652           0      -870.613953   -200.000000  -14875.00000    113.924904
   13653           0      -870.613953   -200.000000  -15125.00097    123.589539
   13654           0      -870.613953   -200.000000  -15375.00097    133.173630
   13655           0      -870.613953   -200.000000  -15625.00097    142.238861
   13656           0      -870.613953   -200.000000  -15875.00097    150.698975
   13657           0      -870.613953   -200.000000  -16125.00097    158.543198
   13658           0      -870.613953   -200.000000  -16375.00000    165.777222
   13659           0      -870.613953   -200.000000  -16625.00000    172.403107
   13660           0      -870.613953   -200.000000  -16875.00000    178.422043
   13661           0      -870.613953   -200.000000  -17125.00000    183.838486
   13662           0      -870.613953   -200.000000  -17375.00000    188.661865
   13663           0      -870.613953   -200.000000  -17625.00000    192.907898
   13664           0      -870.613953   -200.000000  -17875.00000    196.597000
   13665           0      -870.613953   -200.000000  -18125.00000    199.753052
   13666           0      -870.613953   -200.000000  -18375.00000    202.401306
   13667           0      -870.613953   -200.000000  -18625.00000    204.566895
   13668           0      -870.613953   -200.000000  -18875.00000    206.273056
   13669           0      -870.613953   -200.000000  -19125.00000    207.540100
   13670           0      -870.613953   -200.000000  -19375.00000    208.384323
   13671           0      -870.613953   -200.000000  -19625.00000    208.817398
   13672           0      -870.613953   -200.000000  -19875.00000    208.845963
   13673           0      -870.613953   -200.000000  -20125.00000    208.471298
   13674           0      -870.613953   -200.000000  -20375.00000    207.689331
   13675           0      -870.613953   -200.000000  -20625.00000    206.490723
   13676           0      -870.613953   -200.000000  -20875.00000    204.861313
   13677           0      -870.613953   -200.000000  -21125.00000    202.782486
   13678           0      -870.613953   -200.000000  -21375.00000    200.232010
   13679           0      -870.613953   -200.000000  -21625.00000    197.185089
   13680           0      -870.613953   -200.000000  -21875.00000    193.615479
   13681           0      -870.613953   -200.000000  -22125.00000    189.497055
   13682           0      -870.613953   -200.000000  -22375.00000    184.805191
   13683           0      -870.613953   -200.000000  -22625.00000    179.518112
   13684           0      -870.613953   -200.000000  -22875.00000    173.617020
   13685           0      -870.613953   -200.000000  -23125.00000    167.085510
   13686           0      -870.613953   -200.000000  -23375.00000    159.904633
   13687           0      -870.613953   -200.000000  -23625.00000    152.046844
   13688           0      -870.613953   -200.000000  -23875.00000    143.461884
   13689           0      -870.613953   -200.000000  -24125.00000    134.071548
   13690           0      -870.613953   -200.000000  -24375.00000    123.776268
   13691           0      -870.613953   -200.000000  -24625.00000    112.563522
   13692           0      -870.613953   -200.000000  -24875.00000    100.885796
   13693           0      -870.613953   -200.000000  -25125.00000     90.856796
   13694           0      -870.613953   -200.000000  -25375.00000     88.953194
   13695           0      -870.613953   -200.000000  -25625.00000    106.594208
   13696           0      -870.613953   -200.000000  -25875.00000    151.659027
   13697           0     -1119.360840   -200.000000  -13625.00000    178.500244
   13698           0     -1119.360840   -200.000000  -13875.00000    134.203735
   13699           0     -1119.360840   -200.000000  -14125.00000    117.460304
   13700           0     -1119.360840   -200.000000  -14375.00000    116.210808
   13701           0     -1119.360840   -200.000000  -14625.00000    120.538025
   13702           0     -1119.360840   -200.000000  -14875.00000    125.783073
   13703           0     -1119.360840   -200.000000  -15125.00097    130.658508
   13704           0     -1119.360840   -200.000000  -15375.00097    134.966522
   13705           0     -1119.360840   -200.000000  -15625.00097    138.896820
   13706           0     -1119.360840   -200.000000  -15875.00097    142.631393
   13707           0     -1119.360840   -200.000000  -16125.00097    146.283920
   13708           0     -1119.360840   -200.000000  -16375.00000    149.888901
   13709           0     -1119.360840   -200.000000  -16625.00000    153.426575
   13710           0     -1119.360840   -200.000000  -16875.00000    156.850479
   13711           0     -1119.360840   -200.000000  -17125.00000    160.105316
   13712           0     -1119.360840   -200.000000  -17375.00000    163.140579
   13713           0     -1119.360840   -200.000000  -17625.00000    165.915375
   13714           0     -1119.360840   -200.000000  -17875.00000    168.400620
   13715           0     -1119.360840   -200.000000  -18125.00000    170.577850
   13716           0     -1119.360840   -200.000000  -18375.00000    172.437454
   13717           0     -1119.360840   -200.000000  -18625.00000    173.976212
   13718           0     -1119.360840   -200.000000  -18875.00000    175.195129
   13719           0     -1119.360840   -200.000000  -19125.00000    176.097382
   13720           0     -1119.360840   -200.000000  -19375.00000    176.686783
   13721           0     -1119.360840   -200.000000  -19625.00000    176.966660
   13722           0     -1119.360840   -200.000000  -19875.00000    176.939056
   13723           0     -1119.360840   -200.000000  -20125.00000    176.604279
   13724           0     -1119.360840   -200.000000  -20375.00000    175.960831
   13725           0     -1119.360840   -200.000000  -20625.00000    175.005661
   13726           0     -1119.360840   -200.000000  -20875.00000    173.734772
   13727           0     -1119.360840   -200.000000  -21125.00000    172.144180
   13728           0     -1119.360840   -200.000000  -21375.00000    170.231247
   13729           0     -1119.360840   -200.000000  -21625.00000    167.996368
   13730           0     -1119.360840   -200.000000  -21875.00000    165.445129
   13731           0     -1119.360840   -200.000000  -22125.00000    162.590317
   13732           0     -1119.360840   -200.000000  -22375.00000    159.454178
   13733           0     -1119.360840   -200.000000  -22625.00000    156.069290
   13734           0     -1119.360840   -200.000000  -22875.00000    152.478058
   13735           0     -1119.360840   -200.000000  -23125.00000    148.727463
   13736           0     -1119.360840   -200.000000  -23375.00000    144.859604
   13737           0     -1119.360840   -200.000000  -23625.00000    140.890152
   13738           0     -1119.360840   -200.000000  -23875.00000    136.783432
   13739           0     -1119.360840   -200.000000  -24125.00000    132.407639
   13740           0     -1119.360840   -200.000000  -24375.00000    127.516327
   13741           0     -1119.360840   -200.000000  -24625.00000    121.732582
   13742           0     -1119.360840   -200.000000  -24875.00000    114.727348
   13743           0     -1119.360840   -200.000000  -25125.00000    106.720955
   13744           0     -1119.360840   -200.000000  -25375.00000    100.272606
   13745           0     -1119.360840   -200.000000  -25625.00000    104.026405
   13746           0     -1119.360840   -200.000000  -25875.00000    132.625305
   13747           0     -1368.107666   -200.000000  -13625.00000    147.878235
   13748           0     -1368.107666   -200.000000  -13875.00000    123.458336
   13749           0     -1368.107666   -200.000000  -14125.00000    122.382339
   13750           0     -1368.107666   -200.000000  -14375.00000    127.629791
   13751           0     -1368.107666   -200.000000  -14625.00000    132.164093
   13752           0     -1368.107666   -200.000000  -14875.00000    134.619598
   13753           0     -1368.107666   -200.000000  -15125.00097    135.162445
   13754           0     -1368.107666   -200.000000  -15375.00097    134.489197
   13755           0     -1368.107666   -200.000000  -15625.00097    133.245880
   13756           0     -1368.107666   -200.000000  -15875.00097    131.927078
   13757           0     -1368.107666   -200.000000  -16125.00097    130.850021
   13758           0     -1368.107666   -200.000000  -16375.00000    130.172379
   13759           0     -1368.107666   -200.000000  -16625.00000    129.936951
   13760           0     -1368.107666   -200.000000  -16875.00000    130.106384
   13761           0     -1368.107666   -200.000000  -17125.00000    130.602509
   13762           0     -1368.107666   -200.000000  -17375.00000    131.329819
   13763           0     -1368.107666   -200.000000  -17625.00000    132.194687
   13764           0     -1368.107666   -200.000000  -17875.00000    133.113693
   13765           0     -1368.107666   -200.000000  -18125.00000    134.018234
   13766           0     -1368.107666   -200.000000  -18375.00000    134.854614
   13767           0     -1368.107666   -200.000000  -18625.00000    135.582703
   13768           0     -1368.107666   -200.000000  -18875.00000    136.173660
   13769           0     -1368.107666   -200.000000  -19125.00000    136.607437
   13770           0     -1368.107666   -200.000000  -19375.00000    136.870895
   13771           0     -1368.107666   -200.000000  -19625.00000    136.955826
   13772           0     -1368.107666   -200.000000  -19875.00000    136.858063
   13773           0     -1368.107666   -200.000000  -20125.00000    136.576660
   13774           0     -1368.107666   -200.000000  -20375.00000    136.113815
   13775           0     -1368.107666   -200.000000  -20625.00000    135.475418
   13776           0     -1368.107666   -200.000000  -20875.00000    134.671753
   13777           0     -1368.107666   -200.000000  -21125.00000    133.719360
   13778           0     -1368.107666   -200.000000  -21375.00000    132.642624
   13779           0     -1368.107666   -200.000000  -21625.00000    131.476456
   13780           0     -1368.107666   -200.000000  -21875.00000    130.268677
   13781           0     -1368.107666   -200.000000  -22125.00000    129.081879
   13782           0     -1368.107666   -200.000000  -22375.00000    127.994278
   13783           0     -1368.107666   -200.000000  -22625.00000    127.097519
   13784           0     -1368.107666   -200.000000  -22875.00000    126.489319
   13785           0     -1368.107666   -200.000000  -23125.00000    126.259613
   13786           0     -1368.107666   -200.000000  -23375.00000    126.465660
   13787           0     -1368.107666   -200.000000  -23625.00000    127.099922
   13788           0     -1368.107666   -200.000000  -23875.00000    128.042023
   13789           0     -1368.107666   -200.000000  -24125.00000    129.020081
   13790           0     -1368.107666   -200.000000  -24375.00000    129.546997
   13791           0     -1368.107666   -200.000000  -24625.00000    128.924240
   13792           0     -1368.107666   -200.000000  -24875.00000    126.204025
   13793           0     -1368.107666   -200.000000  -25125.00000    120.470436
   13794           0     -1368.107666   -200.000000  -25375.00000    111.461281
   13795           0     -1368.107666   -200.000000  -25625.00000    102.815918
   13796           0     -1368.107666   -200.000000  -25875.00000    110.164635
   13797           0     -1616.854492   -200.000000  -13625.00000    113.560211
   13798           0     -1616.854492   -200.000000  -13875.00000    113.711288
   13799           0     -1616.854492   -200.000000  -14125.00000    125.184143
   13800           0     -1616.854492   -200.000000  -14375.00000    134.552139
   13801           0     -1616.854492   -200.000000  -14625.00000    138.983307
   13802           0     -1616.854492   -200.000000  -14875.00000    139.214279
   13803           0     -1616.854492   -200.000000  -15125.00097    136.340149
   13804           0     -1616.854492   -200.000000  -15375.00097    131.568253
   13805           0     -1616.854492   -200.000000  -15625.00097    125.787827
   13806           0     -1616.854492   -200.000000  -15875.00097    119.724686
   13807           0     -1616.854492   -200.000000  -16125.00097    113.863823
   13808           0     -1616.854492   -200.000000  -16375.00000    108.538406
   13809           0     -1616.854492   -200.000000  -16625.00000    103.926689
   13810           0     -1616.854492   -200.000000  -16875.00000    100.101395
   13811           0     -1616.854492   -200.000000  -17125.00000     97.047882
   13812           0     -1616.854492   -200.000000  -17375.00000     94.697433
   13813           0     -1616.854492   -200.000000  -17625.00000     92.948341
   13814           0     -1616.854492   -200.000000  -17875.00000     91.687241
   13815           0     -1616.854492   -200.000000  -18125.00000     90.802452
   13816           0     -1616.854492   -200.000000  -18375.00000     90.193268
   13817           0     -1616.854492   -200.000000  -18625.00000     89.774178
   13818           0     -1616.854492   -200.000000  -18875.00000     89.476242
   13819           0     -1616.854492   -200.000000  -19125.00000     89.246567
   13820           0     -1616.854492   -200.000000  -19375.00000     89.046799
   13821           0     -1616.854492   -200.000000  -19625.00000     88.851662
   13822           0     -1616.854492   -200.000000  -19875.00000     88.647682
   13823           0     -1616.854492   -200.000000  -20125.00000     88.432434
   13824           0     -1616.854492   -200.000000  -20375.00000     88.214615
   13825           0     -1616.854492   -200.000000  -20625.00000     88.014511
   13826           0     -1616.854492   -200.000000  -20875.00000     87.865570
   13827           0     -1616.854492   -200.000000  -21125.00000     87.815956
   13828           0     -1616.854492   -200.000000  -21375.00000     87.930542
   13829           0     -1616.854492   -200.000000  -21625.00000     88.292137
   13830           0     -1616.854492   -200.000000  -21875.00000     89.001396
   13831           0     -1616.854492   -200.000000  -22125.00000     90.173653
   13832           0     -1616.854492   -200.000000  -22375.00000     91.931740
   13833           0     -1616.854492   -200.000000  -22625.00000     94.392609
   13834           0     -1616.854492   -200.000000  -22875.00000     97.649414
   13835           0     -1616.854492   -200.000000  -23125.00000    101.745186
   13836           0     -1616.854492   -200.000000  -23375.00000    106.650139
   13837           0     -1616.854492   -200.000000  -23625.00000    112.222328
   13838           0     -1616.854492   -200.000000  -23875.00000    118.197586
   13839           0     -1616.854492   -200.000000  -24125.00000    124.116302
   13840           0     -1616.854492   -200.000000  -24375.00000    129.361130
   13841           0     -1616.854492   -200.000000  -24625.00000    132.968933
   13842           0     -1616.854492   -200.000000  -24875.00000    133.837692
   13843           0     -1616.854492   -200.000000  -25125.00000    130.222885
   13844           0     -1616.854492   -200.000000  -25375.00000    120.662582
   13845           0     -1616.854492   -200.000000  -25625.00000    103.522652
   13846           0     -1616.854492   -200.000000  -25875.00000     86.723999
   13847           0     -1865.601318   -200.000000  -13625.00000     81.505028
   13848           0     -1865.601318   -200.000000  -13875.00000    101.119263
   13849           0     -1865.601318   -200.000000  -14125.00000    123.289162
   13850           0     -1865.601318   -200.000000  -14375.00000    135.342911
   13851           0     -1865.601318   -200.000000  -14625.00000    140.254349
   13852           0     -1865.601318   -200.000000  -14875.00000    139.340363
   13853           0     -1865.601318   -200.000000  -15125.00000    134.714584
   13854           0     -1865.601318   -200.000000  -15375.00000    127.545387
   13855           0     -1865.601318   -200.000000  -15625.00000    118.979187
   13856           0     -1865.601318   -200.000000  -15875.00000    109.713524
   13857           0     -1865.601318   -200.000000  -16125.00000    100.334351
   13858           0     -1865.601318   -200.000000  -16375.00000     91.202858
   13859           0     -1865.601318   -200.000000  -16625.00000     82.587868
   13860           0     -1865.601318   -200.000000  -16875.00000     74.643303
   13861           0     -1865.601318   -200.000000  -17125.00000     67.463745
   13862           0     -1865.601318   -200.000000  -17375.00000     61.084953
   13863           0     -1865.601318   -200.000000  -17625.00000     55.508472
   13864           0     -1865.601318   -200.000000  -17875.00000     50.706318
   13865           0     -1865.601318   -200.000000  -18125.00000     46.632763
   13866           0     -1865.601318   -200.000000  -18375.00000     43.229458
   13867           0     -1865.601318   -200.000000  -18625.00000     40.432671
   13868           0     -1865.601318   -200.000000  -18875.00000     38.178768
   13869           0     -1865.601318   -200.000000  -19125.00000     36.410130
   13870           0     -1865.601318   -200.000000  -19375.00000     35.080383
   13871           0     -1865.601318   -200.000000  -19625.00000     34.158966
   13872           0     -1865.601318   -200.000000  -19875.00000     33.634514
   13873           0     -1865.601318   -200.000000  -20125.00000     33.516838
   13874           0     -1865.601318   -200.000000  -20375.00000     33.836903
   13875           0     -1865.601318   -200.000000  -20625.00000     34.644676
   13876           0     -1865.601318   -200.000000  -20875.00000     36.004307
   13877           0     -1865.601318   -200.000000  -21125.00000     37.987759
   13878           0     -1865.601318   -200.000000  -21375.00000     40.667072
   13879           0     -1865.601318   -200.000000  -21625.00000     44.107990
   13880           0     -1865.601318   -200.000000  -21875.00000     48.364151
   13881           0     -1865.601318   -200.000000  -22125.00000     53.474148
   13882           0     -1865.601318   -200.000000  -22375.00000     59.456623
   13883           0     -1865.601318   -200.000000  -22625.00000     66.308189
   13884           0     -1865.601318   -200.000000  -22875.00000     73.991501
   13885           0     -1865.601318   -200.000000  -23125.00000     82.432770
   13886           0     -1865.601318   -200.000000  -23375.00000     91.490288
   13887           0     -1865.601318   -200.000000  -23625.00000    100.960960
   13888           0     -1865.601318   -200.000000  -23875.00000    110.500740
   13889           0     -1865.601318   -200.000000  -24125.00000    119.677933
   13890           0     -1865.601318   -200.000000  -24375.00000    127.762047
   13891           0     -1865.601318   -200.000000  -24625.00000    133.950134
   13892           0     -1865.601318   -200.000000  -24875.00000    136.759018
   13893           0     -1865.601318   -200.000000  -25125.00000    134.827789
   13894           0     -1865.601318   -200.000000  -25375.00000    125.096985
   13895           0     -1865.601318   -200.000000  -25625.00000    105.141396
   13896           0     -1865.601318   -200.000000  -25875.00000     68.942719
   13897           0      1865.601318   -200.000000   -124.999985     44.916668
   13898           0      1865.601318   -200.000000   -375.000000     87.650444
   13899           0      1865.601318   -200.000000   -624.999939    115.206436
   13900           0      1865.601318   -200.000000   -874.999878    130.688080
   13901           0      1865.601318   -200.000000  -1125.000000    136.761124
   13902           0      1865.601318   -200.000000  -1375.000244    136.885910
   13903           0      1865.601318   -200.000000  -1625.000000    132.676117
   13904           0      1865.601318   -200.000000  -1874.999512    125.882439
   13905           0      1865.601318   -200.000000  -2125.000000    117.474632
   13906           0      1865.601318   -200.000000  -2375.000488    108.329178
   13907           0      1865.601318   -200.000000  -2624.999756     98.978310
   13908           0      1865.601318   -200.000000  -2874.999268     89.841568
   13909           0      1865.601318   -200.000000  -3124.999512     81.175285
   13910           0      1865.601318   -200.000000  -3375.000488     73.156181
   13911           0      1865.601318   -200.000000  -3625.000000     65.882233
   13912           0      1865.601318   -200.000000  -3875.000244     59.402550
   13913           0      1865.601318   -200.000000  -4125.000488     53.727737
   13914           0      1865.601318   -200.000000  -4375.000488     48.840984
   13915           0      1865.601318   -200.000000  -4625.000488     44.705795
   13916           0      1865.601318   -200.000000  -4875.000000     41.270588
   13917           0      1865.601318   -200.000000  -5124.999023     38.473373
   13918           0      1865.601318   -200.000000  -5374.999023     36.246368
   13919           0      1865.601318   -200.000000  -5625.000000     34.519108
   13920           0      1865.601318   -200.000000  -5875.000977     33.225243
   13921           0      1865.601318   -200.000000  -6125.000977     32.304550
   13922           0      1865.601318   -200.000000  -6375.000000     31.709925
   13923           0      1865.601318   -200.000000  -6624.999512     31.405910
   13924           0      1865.601318   -200.000000  -6875.000488     31.375229
   13925           0      1865.601318   -200.000000  -7124.999512     31.615501
   13926           0      1865.601318   -200.000000  -7374.999023     32.144585
   13927           0      1865.601318   -200.000000  -7625.000000     32.994106
   13928           0      1865.601318   -200.000000  -7875.000488     34.212566
   13929           0      1865.601318   -200.000000  -8124.999512     35.859444
   13930           0      1865.601318   -200.000000  -8374.999023     38.003960
   13931           0      1865.601318   -200.000000  -8625.000000     40.717785
   13932           0      1865.601318   -200.000000  -8875.000977     44.071590
   13933           0      1865.601318   -200.000000  -9125.000000     48.129883
   13934           0      1865.601318   -200.000000  -9374.999023     52.946960
   13935           0      1865.601318   -200.000000  -9625.000000     58.560539
   13936           0      1865.601318   -200.000000  -9874.999023     64.988663
   13937           0      1865.601318   -200.000000  -10125.00000     72.219711
   13938           0      1865.601318   -200.000000  -10375.00000     80.206017
   13939           0      1865.601318   -200.000000  -10624.99902     88.844879
   13940           0      1865.601318   -200.000000  -10875.00195     97.964554
   13941           0      1865.601318   -200.000000  -11125.00195    107.293144
   13942           0      1865.601318   -200.000000  -11375.00097    116.428993
   13943           0      1865.601318   -200.000000  -11625.00097    124.791420
   13944           0      1865.601318   -200.000000  -11875.00000    131.565826
   13945           0      1865.601318   -200.000000  -12125.00000    135.624207
   13946           0      1865.601318   -200.000000  -12374.99902    135.412811
   13947           0      1865.601318   -200.000000  -12625.00097    128.783676
   13948           0      1865.601318   -200.000000  -12874.99804    112.792450
   13949           0      1865.601318   -200.000000  -13124.99707     82.436035
   13950           0      1865.601318   -200.000000  -13374.99804     28.789701
   13951           0      1616.854492   -200.000000   -124.999985     82.144936
   13952           0      1616.854492   -200.000000   -374.999939     92.228775
   13953           0      1616.854492   -200.000000   -624.999878    113.535416
   13954           0      1616.854492   -200.000000   -874.999756    127.636826
   13955           0      1616.854492   -200.000000  -1124.999878    134.816879
   13956           0      1616.854492   -200.000000  -1375.000488    136.441696
   13957           0      1616.854492   -200.000000  -1625.000000    134.463028
   13958           0      1616.854492   -200.000000  -1874.999023    130.138504
   13959           0      1616.854492   -200.000000  -2125.000244    124.602585
   13960           0      1616.854492   -200.000000  -2375.000488    118.594360
   13961           0      1616.854492   -200.000000  -2624.999512    112.683502
   13962           0      1616.854492   -200.000000  -2874.998779    107.220932
   13963           0      1616.854492   -200.000000  -3124.999512    102.425179
   13964           0      1616.854492   -200.000000  -3375.000977     98.391289
   13965           0      1616.854492   -200.000000  -3625.000488     95.129730
   13966           0      1616.854492   -200.000000  -3875.000488     92.589088
   13967           0      1616.854492   -200.000000  -4125.000977     90.682373
   13968           0      1616.854492   -200.000000  -4375.000977     89.304718
   13969           0      1616.854492   -200.000000  -4625.000977     88.348701
   13970           0      1616.854492   -200.000000  -4875.000000     87.714722
   13971           0      1616.854492   -200.000000  -5124.999023     87.315102
   13972           0      1616.854492   -200.000000  -5374.998047     87.077576
   13973           0      1616.854492   -200.000000  -5625.000000     86.944183
   13974           0      1616.854492   -200.000000  -5875.001953     86.870430
   13975           0      1616.854492   -200.000000  -6125.001953     86.823059
   13976           0      1616.854492   -200.000000  -6375.000000     86.778648
   13977           0      1616.854492   -200.000000  -6624.999023     86.722115
   13978           0      1616.854492   -200.000000  -6875.001465     86.646500
   13979           0      1616.854492   -200.000000  -7124.999023     86.551018
   13980           0      1616.854492   -200.000000  -7374.997559     86.441788
   13981           0      1616.854492   -200.000000  -7624.999023     86.332428
   13982           0      1616.854492   -200.000000  -7875.000977     86.246178
   13983           0      1616.854492   -200.000000  -8124.999512     86.215431
   13984           0      1616.854492   -200.000000  -8374.998047     86.284462
   13985           0      1616.854492   -200.000000  -8625.000000     86.512505
   13986           0      1616.854492   -200.000000  -8875.001953     86.974297
   13987           0      1616.854492   -200.000000  -9125.000000     87.759621
   13988           0      1616.854492   -200.000000  -9374.998047     88.971771
   13989           0      1616.854492   -200.000000  -9625.000000     90.723534
   13990           0      1616.854492   -200.000000  -9874.998047     93.124443
   13991           0      1616.854492   -200.000000  -10125.00000     96.266174
   13992           0      1616.854492   -200.000000  -10375.00000    100.202148
   13993           0      1616.854492   -200.000000  -10624.99804    104.922401
   13994           0      1616.854492   -200.000000  -10875.00293    110.324982
   13995           0      1616.854492   -200.000000  -11125.00195    116.188293
   13996           0      1616.854492   -200.000000  -11375.00097    122.134422
   13997           0      1616.854492   -200.000000  -11625.00097    127.590729
   13998           0      1616.854492   -200.000000  -11875.00000    131.742554
   13999           0      1616.854492   -200.000000  -12125.00000    133.453842
   14000           0      1616.854492   -200.000000  -12375.00000    131.227737
   14001           0      1616.854492   -200.000000  -12625.00097    123.023529
   14002           0      1616.854492   -200.000000  -12874.99609    106.546234
   14003           0      1616.854492   -200.000000  -13124.99414     80.255867
   14004           0      1616.854492   -200.000000  -13374.99609     69.190620
   14005           0      1368.107666   -200.000000   -124.999985    121.594116
   14006           0      1368.107666   -200.000000   -374.999939    101.419586
   14007           0      1368.107666   -200.000000   -624.999878    108.183441
   14008           0      1368.107666   -200.000000   -874.999756    119.274246
   14009           0      1368.107666   -200.000000  -1124.999878    127.350571
   14010           0      1368.107666   -200.000000  -1375.000488    131.836258
   14011           0      1368.107666   -200.000000  -1625.000000    133.530731
   14012           0      1368.107666   -200.000000  -1874.999023    133.483932
   14013           0      1368.107666   -200.000000  -2125.000244    132.522247
   14014           0      1368.107666   -200.000000  -2375.000488    131.269974
   14015           0      1368.107666   -200.000000  -2624.999512    130.116730
   14016           0      1368.107666   -200.000000  -2874.998779    129.282166
   14017           0      1368.107666   -200.000000  -3124.999512    128.849213
   14018           0      1368.107666   -200.000000  -3375.000977    128.813965
   14019           0      1368.107666   -200.000000  -3625.000488    129.120361
   14020           0      1368.107666   -200.000000  -3875.000488    129.688583
   14021           0      1368.107666   -200.000000  -4125.000977    130.434326
   14022           0      1368.107666   -200.000000  -4375.000977    131.279907
   14023           0      1368.107666   -200.000000  -4625.000977    132.159393
   14024           0      1368.107666   -200.000000  -4875.000000    133.020004
   14025           0      1368.107666   -200.000000  -5124.999023    133.821838
   14026           0      1368.107666   -200.000000  -5374.998047    134.535538
   14027           0      1368.107666   -200.000000  -5625.000000    135.140533
   14028           0      1368.107666   -200.000000  -5875.001953    135.622757
   14029           0      1368.107666   -200.000000  -6125.001953    135.972977
   14030           0      1368.107666   -200.000000  -6375.000000    136.185333
   14031           0      1368.107666   -200.000000  -6624.999023    136.256363
   14032           0      1368.107666   -200.000000  -6875.001465    136.184067
   14033           0      1368.107666   -200.000000  -7124.999023    135.967911
   14034           0      1368.107666   -200.000000  -7374.997559    135.608688
   14035           0      1368.107666   -200.000000  -7624.999023    135.108780
   14036           0      1368.107666   -200.000000  -7875.000977    134.472885
   14037           0      1368.107666   -200.000000  -8124.999512    133.709290
   14038           0      1368.107666   -200.000000  -8374.998047    132.831268
   14039           0      1368.107666   -200.000000  -8625.000000    131.858719
   14040           0      1368.107666   -200.000000  -8875.001953    130.820557
   14041           0      1368.107666   -200.000000  -9125.000000    129.756927
   14042           0      1368.107666   -200.000000  -9374.998047    128.721298
   14043           0      1368.107666   -200.000000  -9625.000000    127.780777
   14044           0      1368.107666   -200.000000  -9874.998047    127.015312
   14045           0      1368.107666   -200.000000  -10125.00000    126.512001
   14046           0      1368.107666   -200.000000  -10375.00000    126.353706
   14047           0      1368.107666   -200.000000  -10624.99804    126.598518
   14048           0      1368.107666   -200.000000  -10875.00293    127.251053
   14049           0      1368.107666   -200.000000  -11125.00195    128.221741
   14050           0      1368.107666   -200.000000  -11375.00097    129.278687
   14051           0      1368.107666   -200.000000  -11625.00097    130.000610
   14052           0      1368.107666   -200.000000  -11875.00000    129.713760
   14053           0      1368.107666   -200.000000  -12125.00000    127.494118
   14054           0      1368.107666   -200.000000  -12375.00000    122.112717
   14055           0      1368.107666   -200.000000  -12625.00097    112.506142
   14056           0      1368.107666   -200.000000  -12874.99609     98.748260
   14057           0      1368.107666   -200.000000  -13124.99414     90.037949
   14058           0      1368.107666   -200.000000  -13374.99609    112.145073
   14059           0      1119.360840   -200.000000   -124.999985    156.813919
   14060           0      1119.360840   -200.000000   -374.999939    113.966881
   14061           0      1119.360840   -200.000000   -624.999878    102.421646
   14062           0      1119.360840   -200.000000   -874.999756    106.980919
   14063           0      1119.360840   -200.000000  -1124.999878    115.383461
   14064           0      1119.360840   -200.000000  -1375.000488    123.107956
   14065           0      1119.360840   -200.000000  -1625.000000    129.365417
   14066           0      1119.360840   -200.000000  -1874.999023    134.390274
   14067           0      1119.360840   -200.000000  -2125.000244    138.629486
   14068           0      1119.360840   -200.000000  -2375.000488    142.423462
   14069           0      1119.360840   -200.000000  -2624.999512    145.993439
   14070           0      1119.360840   -200.000000  -2874.998779    149.440887
   14071           0      1119.360840   -200.000000  -3124.999512    152.794479
   14072           0      1119.360840   -200.000000  -3375.000977    156.037415
   14073           0      1119.360840   -200.000000  -3625.000488    159.134811
   14074           0      1119.360840   -200.000000  -3875.000488    162.048584
   14075           0      1119.360840   -200.000000  -4125.000977    164.745621
   14076           0      1119.360840   -200.000000  -4375.000977    167.201141
   14077           0      1119.360840   -200.000000  -4625.000977    169.399628
   14078           0      1119.360840   -200.000000  -4875.000000    171.333450
   14079           0      1119.360840   -200.000000  -5124.999023    173.001007
   14080           0      1119.360840   -200.000000  -5374.998047    174.405228
   14081           0      1119.360840   -200.000000  -5625.000000    175.551376
   14082           0      1119.360840   -200.000000  -5875.001953    176.445862
   14083           0      1119.360840   -200.000000  -6125.001953    177.094940
   14084           0      1119.360840   -200.000000  -6375.000000    177.503983
   14085           0      1119.360840   -200.000000  -6624.999023    177.676712
   14086           0      1119.360840   -200.000000  -6875.001465    177.614700
   14087           0      1119.360840   -200.000000  -7124.999023    177.317474
   14088           0      1119.360840   -200.000000  -7374.997559    176.782242
   14089           0      1119.360840   -200.000000  -7624.999023    176.004150
   14090           0      1119.360840   -200.000000  -7875.000977    174.976776
   14091           0      1119.360840   -200.000000  -8124.999512    173.692734
   14092           0      1119.360840   -200.000000  -8374.998047    172.144363
   14093           0      1119.360840   -200.000000  -8625.000000    170.325089
   14094           0      1119.360840   -200.000000  -8875.001953    168.230972
   14095           0      1119.360840   -200.000000  -9125.000000    165.862457
   14096           0      1119.360840   -200.000000  -9374.998047    163.225891
   14097           0      1119.360840   -200.000000  -9625.000000    160.335785
   14098           0      1119.360840   -200.000000  -9874.998047    157.215866
   14099           0      1119.360840   -200.000000  -10125.00000    153.898422
   14100           0      1119.360840   -200.000000  -10375.00000    150.420593
   14101           0      1119.360840   -200.000000  -10624.99804    146.816254
   14102           0      1119.360840   -200.000000  -10875.00293    143.098602
   14103           0      1119.360840   -200.000000  -11125.00195    139.233749
   14104           0      1119.360840   -200.000000  -11375.00097    135.105148
   14105           0      1119.360840   -200.000000  -11625.00097    130.465149
   14106           0      1119.360840   -200.000000  -11875.00000    124.918953
   14107           0      1119.360840   -200.000000  -12125.00000    117.921997
   14108           0      1119.360840   -200.000000  -12375.00000    109.110291
   14109           0      1119.360840   -200.000000  -12625.00097     99.113342
   14110           0      1119.360840   -200.000000  -12874.99609     93.100845
   14111           0      1119.360840   -200.000000  -13124.99414    105.099800
   14112           0      1119.360840   -200.000000  -13374.99609    150.259338
   14113           0       870.613953   -200.000000   -124.999985    186.055969
   14114           0       870.613953   -200.000000   -374.999939    126.995438
   14115           0       870.613953   -200.000000   -624.999878     97.767975
   14116           0       870.613953   -200.000000   -874.999756     92.825340
   14117           0       870.613953   -200.000000  -1124.999878    100.393471
   14118           0       870.613953   -200.000000  -1375.000488    111.520500
   14119           0       870.613953   -200.000000  -1625.000000    122.695686
   14120           0       870.613953   -200.000000  -1874.999023    133.007156
   14121           0       870.613953   -200.000000  -2125.000244    142.360550
   14122           0       870.613953   -200.000000  -2375.000488    150.862106
   14123           0       870.613953   -200.000000  -2624.999512    158.618607
   14124           0       870.613953   -200.000000  -2874.998779    165.707550
   14125           0       870.613953   -200.000000  -3124.999512    172.174179
   14126           0       870.613953   -200.000000  -3375.000977    178.046661
   14127           0       870.613953   -200.000000  -3625.000488    183.345261
   14128           0       870.613953   -200.000000  -3875.000488    188.090042
   14129           0       870.613953   -200.000000  -4125.000977    192.302750
   14130           0       870.613953   -200.000000  -4375.000977    196.007874
   14131           0       870.613953   -200.000000  -4625.000977    199.232361
   14132           0       870.613953   -200.000000  -4875.000000    202.004303
   14133           0       870.613953   -200.000000  -5124.999023    204.351822
   14134           0       870.613953   -200.000000  -5374.998047    206.301773
   14135           0       870.613953   -200.000000  -5625.000000    207.878571
   14136           0       870.613953   -200.000000  -5875.001953    209.103653
   14137           0       870.613953   -200.000000  -6125.001953    209.994583
   14138           0       870.613953   -200.000000  -6375.000000    210.564850
   14139           0       870.613953   -200.000000  -6624.999023    210.823410
   14140           0       870.613953   -200.000000  -6875.001465    210.774551
   14141           0       870.613953   -200.000000  -7124.999023    210.417740
   14142           0       870.613953   -200.000000  -7374.997559    209.747620
   14143           0       870.613953   -200.000000  -7624.999023    208.754166
   14144           0       870.613953   -200.000000  -7875.000977    207.422806
   14145           0       870.613953   -200.000000  -8124.999512    205.734741
   14146           0       870.613953   -200.000000  -8374.998047    203.667267
   14147           0       870.613953   -200.000000  -8625.000000    201.194382
   14148           0       870.613953   -200.000000  -8875.001953    198.287781
   14149           0       870.613953   -200.000000  -9125.000000    194.917862
   14150           0       870.613953   -200.000000  -9374.998047    191.054398
   14151           0       870.613953   -200.000000  -9625.000000    186.667984
   14152           0       870.613953   -200.000000  -9874.998047    181.731735
   14153           0       870.613953   -200.000000  -10125.00000    176.220535
   14154           0       870.613953   -200.000000  -10375.00000    170.110886
   14155           0       870.613953   -200.000000  -10624.99804    163.377213
   14156           0       870.613953   -200.000000  -10875.00293    155.984512
   14157           0       870.613953   -200.000000  -11125.00195    147.876633
   14158           0       870.613953   -200.000000  -11375.00097    138.959198
   14159           0       870.613953   -200.000000  -11625.00097    129.095398
   14160           0       870.613953   -200.000000  -11875.00000    118.124069
   14161           0       870.613953   -200.000000  -12125.00000    106.071220
   14162           0       870.613953   -200.000000  -12375.00000     93.771324
   14163           0       870.613953   -200.000000  -12625.00097     85.057495
   14164           0       870.613953   -200.000000  -12874.99609     90.044258
   14165           0       870.613953   -200.000000  -13124.99414    121.085815
   14166           0       870.613953   -200.000000  -13374.99609    182.028473
   14167           0       621.867126   -200.000000   -124.999985    208.572174
   14168           0       621.867126   -200.000000   -374.999939    138.382645
   14169           0       621.867126   -200.000000   -624.999878     94.645226
   14170           0       621.867126   -200.000000   -874.999756     78.661278
   14171           0       621.867126   -200.000000  -1124.999878     84.322029
   14172           0       621.867126   -200.000000  -1375.000488     98.886620
   14173           0       621.867126   -200.000000  -1625.000000    114.976151
   14174           0       621.867126   -200.000000  -1874.999023    130.222733
   14175           0       621.867126   -200.000000  -2125.000244    144.086151
   14176           0       621.867126   -200.000000  -2375.000488    156.541824
   14177           0       621.867126   -200.000000  -2624.999512    167.693771
   14178           0       621.867126   -200.000000  -2874.998779    177.657608
   14179           0       621.867126   -200.000000  -3124.999512    186.538391
   14180           0       621.867126   -200.000000  -3375.000977    194.425613
   14181           0       621.867126   -200.000000  -3625.000488    201.399338
   14182           0       621.867126   -200.000000  -3875.000488    207.533066
   14183           0       621.867126   -200.000000  -4125.000977    212.895081
   14184           0       621.867126   -200.000000  -4375.000977    217.549042
   14185           0       621.867126   -200.000000  -4625.000977    221.554764
   14186           0       621.867126   -200.000000  -4875.000000    224.967331
   14187           0       621.867126   -200.000000  -5124.999023    227.836777
   14188           0       621.867126   -200.000000  -5374.998047    230.207657
   14189           0       621.867126   -200.000000  -5625.000000    232.118469
   14190           0       621.867126   -200.000000  -5875.001953    233.601578
   14191           0       621.867126   -200.000000  -6125.001953    234.682816
   14192           0       621.867126   -200.000000  -6375.000000    235.381729
   14193           0       621.867126   -200.000000  -6624.999023    235.711075
   14194           0       621.867126   -200.000000  -6875.001465    235.677063
   14195           0       621.867126   -200.000000  -7124.999023    235.279175
   14196           0       621.867126   -200.000000  -7374.997559    234.510269
   14197           0       621.867126   -200.000000  -7624.999023    233.356445
   14198           0       621.867126   -200.000000  -7875.000977    231.797211
   14199           0       621.867126   -200.000000  -8124.999512    229.805557
   14200           0       621.867126   -200.000000  -8374.998047    227.347748
   14201           0       621.867126   -200.000000  -8625.000000    224.383698
   14202           0       621.867126   -200.000000  -8875.001953    220.867371
   14203           0       621.867126   -200.000000  -9125.000000    216.747040
   14204           0       621.867126   -200.000000  -9374.998047    211.965210
   14205           0       621.867126   -200.000000  -9625.000000    206.459396
   14206           0       621.867126   -200.000000  -9874.998047    200.162766
   14207           0       621.867126   -200.000000  -10125.00000    193.003143
   14208           0       621.867126   -200.000000  -10375.00000    184.902298
   14209           0       621.867126   -200.000000  -10624.99804    175.774216
   14210           0       621.867126   -200.000000  -10875.00293    165.519852
   14211           0       621.867126   -200.000000  -11125.00195    154.022583
   14212           0       621.867126   -200.000000  -11375.00097    141.147690
   14213           0       621.867126   -200.000000  -11625.00097    126.758759
   14214           0       621.867126   -200.000000  -11875.00000    110.830650
   14215           0       621.867126   -200.000000  -12125.00000     93.835365
   14216           0       621.867126   -200.000000  -12375.00000     78.210762
   14217           0       621.867126   -200.000000  -12625.00097     72.136803
   14218           0       621.867126   -200.000000  -12874.99609     89.625984
   14219           0       621.867126   -200.000000  -13124.99414    135.410278
   14220           0       621.867126   -200.000000  -13374.99609    206.930450
   14221           0       373.120270   -200.000000   -124.999985    223.964981
   14222           0       373.120270   -200.000000   -374.999939    146.769257
   14223           0       373.120270   -200.000000   -624.999878     92.946541
   14224           0       373.120270   -200.000000   -874.999756     66.543182
   14225           0       373.120270   -200.000000  -1124.999878     69.662193
   14226           0       373.120270   -200.000000  -1375.000488     87.560997
   14227           0       373.120270   -200.000000  -1625.000000    107.975227
   14228           0       373.120270   -200.000000  -1874.999023    127.196320
   14229           0       373.120270   -200.000000  -2125.000244    144.477051
   14230           0       373.120270   -200.000000  -2375.000488    159.817657
   14231           0       373.120270   -200.000000  -2624.999512    173.383392
   14232           0       373.120270   -200.000000  -2874.998779    185.359482
   14233           0       373.120270   -200.000000  -3124.999512    195.912766
   14234           0       373.120270   -200.000000  -3375.000977    205.188522
   14235           0       373.120270   -200.000000  -3625.000488    213.313828
   14236           0       373.120270   -200.000000  -3875.000488    220.402328
   14237           0       373.120270   -200.000000  -4125.000977    226.555420
   14238           0       373.120270   -200.000000  -4375.000977    231.864166
   14239           0       373.120270   -200.000000  -4625.000977    236.410782
   14240           0       373.120270   -200.000000  -4875.000000    240.268677
   14241           0       373.120270   -200.000000  -5124.999023    243.502609
   14242           0       373.120270   -200.000000  -5374.998047    246.169067
   14243           0       373.120270   -200.000000  -5625.000000    248.315948
   14244           0       373.120270   -200.000000  -5875.001953    249.982986
   14245           0       373.120270   -200.000000  -6125.001953    251.201569
   14246           0       373.120270   -200.000000  -6375.000000    251.995209
   14247           0       373.120270   -200.000000  -6624.999023    252.379318
   14248           0       373.120270   -200.000000  -6875.001465    252.361343
   14249           0       373.120270   -200.000000  -7124.999023    251.940918
   14250           0       373.120270   -200.000000  -7374.997559    251.109573
   14251           0       373.120270   -200.000000  -7624.999023    249.850876
   14252           0       373.120270   -200.000000  -7875.000977    248.140503
   14253           0       373.120270   -200.000000  -8124.999512    245.945877
   14254           0       373.120270   -200.000000  -8374.998047    243.226044
   14255           0       373.120270   -200.000000  -8625.000000    239.931519
   14256           0       373.120270   -200.000000  -8875.001953    236.004440
   14257           0       373.120270   -200.000000  -9125.000000    231.378433
   14258           0       373.120270   -200.000000  -9374.998047    225.977905
   14259           0       373.120270   -200.000000  -9625.000000    219.717987
   14260           0       373.120270   -200.000000  -9874.998047    212.504868
   14261           0       373.120270   -200.000000  -10125.00000    204.233459
   14262           0       373.120270   -200.000000  -10375.00000    194.786407
   14263           0       373.120270   -200.000000  -10624.99804    184.031464
   14264           0       373.120270   -200.000000  -10875.00293    171.816345
   14265           0       373.120270   -200.000000  -11125.00195    157.965607
   14266           0       373.120270   -200.000000  -11375.00097    142.281693
   14267           0       373.120270   -200.000000  -11625.00097    124.578606
   14268           0       373.120270   -200.000000  -11875.00000    104.822517
   14269           0       373.120270   -200.000000  -12125.00000     83.736420
   14270           0       373.120270   -200.000000  -12375.00000     65.213692
   14271           0       373.120270   -200.000000  -12625.00097     62.767548
   14272           0       373.120270   -200.000000  -12874.99609     91.304886
   14273           0       373.120270   -200.000000  -13124.99414    146.645630
   14274           0       373.120270   -200.000000  -13374.99609    224.637390
   14275           0       124.373421   -200.000000   -124.999985    232.023880
   14276           0       124.373421   -200.000000   -374.999939    151.381210
   14277           0       124.373421   -200.000000   -624.999878     92.320671
   14278           0       124.373421   -200.000000   -874.999756     59.068562
   14279           0       124.373421   -200.000000  -1124.999878     59.968079
   14280           0       124.373421   -200.000000  -1375.000488     80.287926
   14281           0       124.373421   -200.000000  -1625.000000    103.454163
   14282           0       124.373421   -200.000000  -1874.999023    124.991577
   14283           0       124.373421   -200.000000  -2125.000244    144.175201
   14284           0       124.373421   -200.000000  -2375.000488    161.081314
   14285           0       124.373421   -200.000000  -2624.999512    175.940475
   14286           0       124.373421   -200.000000  -2874.998779    188.987259
   14287           0       124.373421   -200.000000  -3124.999512    200.428833
   14288           0       124.373421   -200.000000  -3375.000977    210.442337
   14289           0       124.373421   -200.000000  -3625.000488    219.181137
   14290           0       124.373421   -200.000000  -3875.000488    226.780273
   14291           0       124.373421   -200.000000  -4125.000977    233.358612
   14292           0       124.373421   -200.000000  -4375.000977    239.021469
   14293           0       124.373421   -200.000000  -4625.000977    243.862762
   14294           0       124.373421   -200.000000  -4875.000000    247.965118
   14295           0       124.373421   -200.000000  -5124.999023    251.401169
   14296           0       124.373421   -200.000000  -5374.998047    254.233276
   14297           0       124.373421   -200.000000  -5625.000000    256.514404
   14298           0       124.373421   -200.000000  -5875.001953    258.287903
   14299           0       124.373421   -200.000000  -6125.001953    259.588196
   14300           0       124.373421   -200.000000  -6375.000000    260.440826
   14301           0       124.373421   -200.000000  -6624.999023    260.862579
   14302           0       124.373421   -200.000000  -6875.001465    260.861633
   14303           0       124.373421   -200.000000  -7124.999023    260.437531
   14304           0       124.373421   -200.000000  -7374.997559    259.581360
   14305           0       124.373421   -200.000000  -7624.999023    258.275360
   14306           0       124.373421   -200.000000  -7875.000977    256.493225
   14307           0       124.373421   -200.000000  -8124.999512    254.199615
   14308           0       124.373421   -200.000000  -8374.998047    251.349838
   14309           0       124.373421   -200.000000  -8625.000000    247.889618
   14310           0       124.373421   -200.000000  -8875.001953    243.755356
   14311           0       124.373421   -200.000000  -9125.000000    238.873260
   14312           0       124.373421   -200.000000  -9374.998047    233.158569
   14313           0       124.373421   -200.000000  -9625.000000    226.515442
   14314           0       124.373421   -200.000000  -9874.998047    218.836594
   14315           0       124.373421   -200.000000  -10125.00000    210.000687
   14316           0       124.373421   -200.000000  -10375.00000    199.870834
   14317           0       124.373421   -200.000000  -10624.99804    188.291656
   14318           0       124.373421   -200.000000  -10875.00293    175.083847
   14319           0       124.373421   -200.000000  -11125.00195    160.040695
   14320           0       124.373421   -200.000000  -11375.00097    142.930969
   14321           0       124.373421   -200.000000  -11625.00097    123.533447
   14322           0       124.373421   -200.000000  -11875.00000    101.800621
   14323           0       124.373421   -200.000000  -12125.00000     78.561996
   14324           0       124.373421   -200.000000  -12375.00000     58.715981
   14325           0       124.373421   -200.000000  -12625.00097     59.568642
   14326           0       124.373421   -200.000000  -12874.99609     94.326164
   14327           0       124.373421   -200.000000  -13124.99414    154.043869
   14328           0       124.373421   -200.000000  -13374.99609    235.007629
   14329           0      -124.373421   -200.000000   -124.999985    232.644348
   14330           0      -124.373421   -200.000000   -374.999939    151.853989
   14331           0      -124.373421   -200.000000   -624.999878     92.485077
   14332           0      -124.373421   -200.000000   -874.999756     58.615555
   14333           0      -124.373421   -200.000000  -1124.999878     59.029263
   14334           0      -124.373421   -200.000000  -1375.000488     79.358292
   14335           0      -124.373421   -200.000000  -1625.000000    102.638916
   14336           0      -124.373421   -200.000000  -1874.999023    124.293716
   14337           0      -124.373421   -200.000000  -2125.000244    143.585159
   14338           0      -124.373421   -200.000000  -2375.000488    160.590088
   14339           0      -124.373421   -200.000000  -2624.999512    175.539581
   14340           0      -124.373421   -200.000000  -2874.998779    188.669052
   14341           0      -124.373421   -200.000000  -3124.999512    200.186172
   14342           0      -124.373421   -200.000000  -3375.000977    210.268616
   14343           0      -124.373421   -200.000000  -3625.000488    219.070236
   14344           0      -124.373421   -200.000000  -3875.000488    226.726471
   14345           0      -124.373421   -200.000000  -4125.000977    233.356888
   14346           0      -124.373421   -200.000000  -4375.000977    239.067032
   14347           0      -124.373421   -200.000000  -4625.000977    243.951340
   14348           0      -124.373421   -200.000000  -4875.000000    248.092880
   14349           0      -124.373421   -200.000000  -5124.999023    251.564545
   14350           0      -124.373421   -200.000000  -5374.998047    254.429108
   14351           0      -124.373421   -200.000000  -5625.000000    256.739685
   14352           0      -124.373421   -200.000000  -5875.001953    258.540009
   14353           0      -124.373421   -200.000000  -6125.001953    259.864624
   14354           0      -124.373421   -200.000000  -6375.000000    260.739258
   14355           0      -124.373421   -200.000000  -6624.999023    261.180847
   14356           0      -124.373421   -200.000000  -6875.001465    261.197540
   14357           0      -124.373421   -200.000000  -7124.999023    260.789124
   14358           0      -124.373421   -200.000000  -7374.997559    259.946533
   14359           0      -124.373421   -200.000000  -7624.999023    258.652161
   14360           0      -124.373421   -200.000000  -7875.000977    256.879364
   14361           0      -124.373421   -200.000000  -8124.999512    254.592957
   14362           0      -124.373421   -200.000000  -8374.998047    251.748047
   14363           0      -124.373421   -200.000000  -8625.000000    248.290482
   14364           0      -124.373421   -200.000000  -8875.001953    244.156311
   14365           0      -124.373421   -200.000000  -9125.000000    239.271896
   14366           0      -124.373421   -200.000000  -9374.998047    233.552536
   14367           0      -124.373421   -200.000000  -9625.000000    226.902679
   14368           0      -124.373421   -200.000000  -9874.998047    219.215652
   14369           0      -124.373421   -200.000000  -10125.00000    210.371307
   14370           0      -124.373421   -200.000000  -10375.00000    200.234787
   14371           0      -124.373421   -200.000000  -10624.99804    188.654297
   14372           0      -124.373421   -200.000000  -10875.00293    175.456665
   14373           0      -124.373421   -200.000000  -11125.00195    160.445938
   14374           0      -124.373421   -200.000000  -11375.00097    143.411194
   14375           0      -124.373421   -200.000000  -11625.00097    124.170326
   14376           0      -124.373421   -200.000000  -11875.00000    102.761772
   14377           0      -124.373421   -200.000000  -12125.00000     80.209122
   14378           0      -124.373421   -200.000000  -12375.00000     61.725636
   14379           0      -124.373421   -200.000000  -12625.00097     63.714493
   14380           0      -124.373421   -200.000000  -12874.99609     98.076424
   14381           0      -124.373421   -200.000000  -13124.99414    157.293640
   14382           0      -124.373421   -200.000000  -13374.99609    237.986862
   14383           0      -373.120270   -200.000000   -124.999985    225.806702
   14384           0      -373.120270   -200.000000   -374.999939    148.151688
   14385           0      -373.120270   -200.000000   -624.999878     93.381409
   14386           0      -373.120270   -200.000000   -874.999756     65.321327
   14387           0      -373.120270   -200.000000  -1124.999878     67.263985
   14388           0      -373.120270   -200.000000  -1375.000488     85.050552
   14389           0      -373.120270   -200.000000  -1625.000000    105.692513
   14390           0      -373.120270   -200.000000  -1874.999023    125.201317
   14391           0      -373.120270   -200.000000  -2125.000244    142.771667
   14392           0      -373.120270   -200.000000  -2375.000488    158.388214
   14393           0      -373.120270   -200.000000  -2624.999512    172.212479
   14394           0      -373.120270   -200.000000  -2874.998779    184.428436
   14395           0      -373.120270   -200.000000  -3124.999512    195.202866
   14396           0      -373.120270   -200.000000  -3375.000977    204.681625
   14397           0      -373.120270   -200.000000  -3625.000488    212.992554
   14398           0      -373.120270   -200.000000  -3875.000488    220.250549
   14399           0      -373.120270   -200.000000  -4125.000977    226.558075
   14400           0      -373.120270   -200.000000  -4375.000977    232.007507
   14401           0      -373.120270   -200.000000  -4625.000977    236.682251
   14402           0      -373.120270   -200.000000  -4875.000000    240.656723
   14403           0      -373.120270   -200.000000  -5124.999023    243.996902
   14404           0      -373.120270   -200.000000  -5374.998047    246.760086
   14405           0      -373.120270   -200.000000  -5625.000000    248.995041
   14406           0      -373.120270   -200.000000  -5875.001953    250.742126
   14407           0      -373.120270   -200.000000  -6125.001953    252.033417
   14408           0      -373.120270   -200.000000  -6375.000000    252.892853
   14409           0      -373.120270   -200.000000  -6624.999023    253.336258
   14410           0      -373.120270   -200.000000  -6875.001465    253.371323
   14411           0      -373.120270   -200.000000  -7124.999023    252.997696
   14412           0      -373.120270   -200.000000  -7374.997559    252.207092
   14413           0      -373.120270   -200.000000  -7624.999023    250.983078
   14414           0      -373.120270   -200.000000  -7875.000977    249.300949
   14415           0      -373.120270   -200.000000  -8124.999512    247.128067
   14416           0      -373.120270   -200.000000  -8374.998047    244.423126
   14417           0      -373.120270   -200.000000  -8625.000000    241.136383
   14418           0      -373.120270   -200.000000  -8875.001953    237.209763
   14419           0      -373.120270   -200.000000  -9125.000000    232.576859
   14420           0      -373.120270   -200.000000  -9374.998047    227.162247
   14421           0      -373.120270   -200.000000  -9625.000000    220.881912
   14422           0      -373.120270   -200.000000  -9874.998047    213.643829
   14423           0      -373.120270   -200.000000  -10125.00000    205.346237
   14424           0      -373.120270   -200.000000  -10375.00000    195.877716
   14425           0      -373.120270   -200.000000  -10624.99804    185.116180
   14426           0      -373.120270   -200.000000  -10875.00293    172.926971
   14427           0      -373.120270   -200.000000  -11125.00195    159.165314
   14428           0      -373.120270   -200.000000  -11375.00097    143.689072
   14429           0      -373.120270   -200.000000  -11625.00097    126.418495
   14430           0      -373.120270   -200.000000  -11875.00000    107.532410
   14431           0      -373.120270   -200.000000  -12125.00000     88.195663
   14432           0      -373.120270   -200.000000  -12375.00000     72.912575
   14433           0      -373.120270   -200.000000  -12625.00097     73.754555
   14434           0      -373.120270   -200.000000  -12874.99609    102.231857
   14435           0      -373.120270   -200.000000  -13124.99414    156.407364
   14436           0      -373.120270   -200.000000  -13374.99609    233.609634
   14437           0      -621.867126   -200.000000   -124.999985    211.569336
   14438           0      -621.867126   -200.000000   -374.999939    140.561935
   14439           0      -621.867126   -200.000000   -624.999878     95.184570
   14440           0      -621.867126   -200.000000   -874.999756     76.925606
   14441           0      -621.867126   -200.000000  -1124.999878     81.149155
   14442           0      -621.867126   -200.000000  -1375.000488     95.381615
   14443           0      -621.867126   -200.000000  -1625.000000    111.624977
   14444           0      -621.867126   -200.000000  -1874.999023    127.200577
   14445           0      -621.867126   -200.000000  -2125.000244    141.449844
   14446           0      -621.867126   -200.000000  -2375.000488    154.304260
   14447           0      -621.867126   -200.000000  -2624.999512    165.846909
   14448           0      -621.867126   -200.000000  -2874.998779    176.183655
   14449           0      -621.867126   -200.000000  -3124.999512    185.414642
   14450           0      -621.867126   -200.000000  -3375.000977    193.627167
   14451           0      -621.867126   -200.000000  -3625.000488    200.901016
   14452           0      -621.867126   -200.000000  -3875.000488    207.310303
   14453           0      -621.867126   -200.000000  -4125.000977    212.924545
   14454           0      -621.867126   -200.000000  -4375.000977    217.808945
   14455           0      -621.867126   -200.000000  -4625.000977    222.025009
   14456           0      -621.867126   -200.000000  -4875.000000    225.629379
   14457           0      -621.867126   -200.000000  -5124.999023    228.673782
   14458           0      -621.867126   -200.000000  -5374.998047    231.204178
   14459           0      -621.867126   -200.000000  -5625.000000    233.260391
   14460           0      -621.867126   -200.000000  -5875.001953    234.875870
   14461           0      -621.867126   -200.000000  -6125.001953    236.077515
   14462           0      -621.867126   -200.000000  -6375.000000    236.885422
   14463           0      -621.867126   -200.000000  -6624.999023    237.313080
   14464           0      -621.867126   -200.000000  -6875.001465    237.367081
   14465           0      -621.867126   -200.000000  -7124.999023    237.047104
   14466           0      -621.867126   -200.000000  -7374.997559    236.346100
   14467           0      -621.867126   -200.000000  -7624.999023    235.250000
   14468           0      -621.867126   -200.000000  -7875.000977    233.738083
   14469           0      -621.867126   -200.000000  -8124.999512    231.782928
   14470           0      -621.867126   -200.000000  -8374.998047    229.350281
   14471           0      -621.867126   -200.000000  -8625.000000    226.399582
   14472           0      -621.867126   -200.000000  -8875.001953    222.884354
   14473           0      -621.867126   -200.000000  -9125.000000    218.752579
   14474           0      -621.867126   -200.000000  -9374.998047    213.947083
   14475           0      -621.867126   -200.000000  -9625.000000    208.406540
   14476           0      -621.867126   -200.000000  -9874.998047    202.066727
   14477           0      -621.867126   -200.000000  -10125.00000    194.860504
   14478           0      -621.867126   -200.000000  -10375.00000    186.718735
   14479           0      -621.867126   -200.000000  -10624.99804    177.570908
   14480           0      -621.867126   -200.000000  -10875.00293    167.344620
   14481           0      -621.867126   -200.000000  -11125.00195    155.968582
   14482           0      -621.867126   -200.000000  -11375.00097    143.387344
   14483           0      -621.867126   -200.000000  -11625.00097    129.606125
   14484           0      -621.867126   -200.000000  -11875.00000    114.862869
   14485           0      -621.867126   -200.000000  -12125.00000    100.095657
   14486           0      -621.867126   -200.000000  -12375.00000     88.353897
   14487           0      -621.867126   -200.000000  -12625.00097     87.118553
   14488           0      -621.867126   -200.000000  -12874.99609    106.729538
   14489           0      -621.867126   -200.000000  -13124.99414    151.698715
   14490           0      -621.867126   -200.000000  -13374.99609    222.008942
   14491           0      -870.613953   -200.000000   -124.999985    190.092728
   14492           0      -870.613953   -200.000000   -374.999939    129.757156
   14493           0      -870.613953   -200.000000   -624.999878     98.184677
   14494           0      -870.613953   -200.000000   -874.999756     90.769341
   14495           0      -870.613953   -200.000000  -1124.999878     96.927811
   14496           0      -870.613953   -200.000000  -1375.000488    107.567398
   14497           0      -870.613953   -200.000000  -1625.000000    118.761192
   14498           0      -870.613953   -200.000000  -1874.999023    129.336105
   14499           0      -870.613953   -200.000000  -2125.000244    139.077744
   14500           0      -870.613953   -200.000000  -2375.000488    148.025650
   14501           0      -870.613953   -200.000000  -2624.999512    156.249649
   14502           0      -870.613953   -200.000000  -2874.998779    163.804764
   14503           0      -870.613953   -200.000000  -3124.999512    170.722229
   14504           0      -870.613953   -200.000000  -3375.000977    177.022430
   14505           0      -870.613953   -200.000000  -3625.000488    182.721268
   14506           0      -870.613953   -200.000000  -3875.000488    187.837433
   14507           0      -870.613953   -200.000000  -4125.000977    192.392593
   14508           0      -870.613953   -200.000000  -4375.000977    196.412216
   14509           0      -870.613953   -200.000000  -4625.000977    199.924850
   14510           0      -870.613953   -200.000000  -4875.000000    202.960480
   14511           0      -870.613953   -200.000000  -5124.999023    205.549026
   14512           0      -870.613953   -200.000000  -5374.998047    207.719162
   14513           0      -870.613953   -200.000000  -5625.000000    209.497025
   14514           0      -870.613953   -200.000000  -5875.001953    210.905441
   14515           0      -870.613953   -200.000000  -6125.001953    211.963287
   14516           0      -870.613953   -200.000000  -6375.000000    212.685059
   14517           0      -870.613953   -200.000000  -6624.999023    213.080475
   14518           0      -870.613953   -200.000000  -6875.001465    213.154343
   14519           0      -870.613953   -200.000000  -7124.999023    212.906479
   14520           0      -870.613953   -200.000000  -7374.997559    212.331512
   14521           0      -870.613953   -200.000000  -7624.999023    211.419220
   14522           0      -870.613953   -200.000000  -7875.000977    210.154602
   14523           0      -870.613953   -200.000000  -8124.999512    208.518295
   14524           0      -870.613953   -200.000000  -8374.998047    206.486755
   14525           0      -870.613953   -200.000000  -8625.000000    204.033203
   14526           0      -870.613953   -200.000000  -8875.001953    201.128540
   14527           0      -870.613953   -200.000000  -9125.000000    197.742599
   14528           0      -870.613953   -200.000000  -9374.998047    193.845184
   14529           0      -870.613953   -200.000000  -9625.000000    189.408127
   14530           0      -870.613953   -200.000000  -9874.998047    184.407440
   14531           0      -870.613953   -200.000000  -10125.00000    178.824081
   14532           0      -870.613953   -200.000000  -10375.00000    172.645615
   14533           0      -870.613953   -200.000000  -10624.99804    165.865494
   14534           0      -870.613953   -200.000000  -10875.00293    158.480713
   14535           0      -870.613953   -200.000000  -11125.00195    150.488083
   14536           0      -870.613953   -200.000000  -11375.00097    141.881927
   14537           0      -870.613953   -200.000000  -11625.00097    132.674271
   14538           0      -870.613953   -200.000000  -11875.00000    122.955338
   14539           0      -870.613953   -200.000000  -12125.00000    113.173134
   14540           0      -870.613953   -200.000000  -12375.00000    104.732361
   14541           0      -870.613953   -200.000000  -12625.00097    101.613441
   14542           0      -870.613953   -200.000000  -12874.99609    111.625221
   14543           0      -870.613953   -200.000000  -13124.99414    143.810440
   14544           0      -870.613953   -200.000000  -13374.99609    203.433334
   14545           0     -1119.360840   -200.000000   -124.999985    161.692322
   14546           0     -1119.360840   -200.000000   -374.999939    116.952065
   14547           0     -1119.360840   -200.000000   -624.999878    102.496605
   14548           0     -1119.360840   -200.000000   -874.999756    104.754562
   14549           0     -1119.360840   -200.000000  -1124.999878    111.924835
   14550           0     -1119.360840   -200.000000  -1375.000488    119.153877
   14551           0     -1119.360840   -200.000000  -1625.000000    125.323952
   14552           0     -1119.360840   -200.000000  -1874.999023    130.508728
   14553           0     -1119.360840   -200.000000  -2125.000244    135.063202
   14554           0     -1119.360840   -200.000000  -2375.000488    139.271530
   14555           0     -1119.360840   -200.000000  -2624.999512    143.315460
   14556           0     -1119.360840   -200.000000  -2874.998779    147.265518
   14557           0     -1119.360840   -200.000000  -3124.999512    151.128326
   14558           0     -1119.360840   -200.000000  -3375.000977    154.870544
   14559           0     -1119.360840   -200.000000  -3625.000488    158.446930
   14560           0     -1119.360840   -200.000000  -3875.000488    161.812790
   14561           0     -1119.360840   -200.000000  -4125.000977    164.932129
   14562           0     -1119.360840   -200.000000  -4375.000977    167.778992
   14563           0     -1119.360840   -200.000000  -4625.000977    170.338470
   14564           0     -1119.360840   -200.000000  -4875.000000    172.604095
   14565           0     -1119.360840   -200.000000  -5124.999023    174.576172
   14566           0     -1119.360840   -200.000000  -5374.998047    176.259338
   14567           0     -1119.360840   -200.000000  -5625.000000    177.660812
   14568           0     -1119.360840   -200.000000  -5875.001953    178.788635
   14569           0     -1119.360840   -200.000000  -6125.001953    179.650620
   14570           0     -1119.360840   -200.000000  -6375.000000    180.253326
   14571           0     -1119.360840   -200.000000  -6624.999023    180.601364
   14572           0     -1119.360840   -200.000000  -6875.001465    180.697083
   14573           0     -1119.360840   -200.000000  -7124.999023    180.540176
   14574           0     -1119.360840   -200.000000  -7374.997559    180.127914
   14575           0     -1119.360840   -200.000000  -7624.999023    179.455109
   14576           0     -1119.360840   -200.000000  -7875.000977    178.514679
   14577           0     -1119.360840   -200.000000  -8124.999512    177.298325
   14578           0     -1119.360840   -200.000000  -8374.998047    175.797211
   14579           0     -1119.360840   -200.000000  -8625.000000    174.003403
   14580           0     -1119.360840   -200.000000  -8875.001953    171.911621
   14581           0     -1119.360840   -200.000000  -9125.000000    169.521133
   14582           0     -1119.360840   -200.000000  -9374.998047    166.837769
   14583           0     -1119.360840   -200.000000  -9625.000000    163.876633
   14584           0     -1119.360840   -200.000000  -9874.998047    160.664169
   14585           0     -1119.360840   -200.000000  -10125.00000    157.238953
   14586           0     -1119.360840   -200.000000  -10375.00000    153.649841
   14587           0     -1119.360840   -200.000000  -10624.99804    149.951538
   14588           0     -1119.360840   -200.000000  -10875.00293    146.190598
   14589           0     -1119.360840   -200.000000  -11125.00195    142.388199
   14590           0     -1119.360840   -200.000000  -11375.00097    138.512344
   14591           0     -1119.360840   -200.000000  -11625.00097    134.453049
   14592           0     -1119.360840   -200.000000  -11875.00000    130.033081
   14593           0     -1119.360840   -200.000000  -12125.00000    125.069733
   14594           0     -1119.360840   -200.000000  -12375.00000    119.772507
   14595           0     -1119.360840   -200.000000  -12625.00097    115.454460
   14596           0     -1119.360840   -200.000000  -12874.99609    116.821487
   14597           0     -1119.360840   -200.000000  -13124.99414    133.804703
   14598           0     -1119.360840   -200.000000  -13374.99609    178.374161
   14599           0     -1368.107666   -200.000000   -124.999985    126.999405
   14600           0     -1368.107666   -200.000000   -374.999939    104.100822
   14601           0     -1368.107666   -200.000000   -624.999878    107.782257
   14602           0     -1368.107666   -200.000000   -874.999756    117.002197
   14603           0     -1368.107666   -200.000000  -1124.999878    124.186172
   14604           0     -1368.107666   -200.000000  -1375.000488    128.273804
   14605           0     -1368.107666   -200.000000  -1625.000000    129.847610
   14606           0     -1368.107666   -200.000000  -1874.999023    129.864594
   14607           0     -1368.107666   -200.000000  -2125.000244    129.103409
   14608           0     -1368.107666   -200.000000  -2375.000488    128.162979
   14609           0     -1368.107666   -200.000000  -2624.999512    127.407837
   14610           0     -1368.107666   -200.000000  -2874.998779    127.035606
   14611           0     -1368.107666   -200.000000  -3124.999512    127.105125
   14612           0     -1368.107666   -200.000000  -3375.000977    127.591583
   14613           0     -1368.107666   -200.000000  -3625.000488    128.420456
   14614           0     -1368.107666   -200.000000  -3875.000488    129.498596
   14615           0     -1368.107666   -200.000000  -4125.000977    130.732117
   14616           0     -1368.107666   -200.000000  -4375.000977    132.037811
   14617           0     -1368.107666   -200.000000  -4625.000977    133.346893
   14618           0     -1368.107666   -200.000000  -4875.000000    134.605942
   14619           0     -1368.107666   -200.000000  -5124.999023    135.775528
   14620           0     -1368.107666   -200.000000  -5374.998047    136.827774
   14621           0     -1368.107666   -200.000000  -5625.000000    137.743591
   14622           0     -1368.107666   -200.000000  -5875.001953    138.510742
   14623           0     -1368.107666   -200.000000  -6125.001953    139.121536
   14624           0     -1368.107666   -200.000000  -6375.000000    139.571518
   14625           0     -1368.107666   -200.000000  -6624.999023    139.858292
   14626           0     -1368.107666   -200.000000  -6875.001465    139.980560
   14627           0     -1368.107666   -200.000000  -7124.999023    139.938004
   14628           0     -1368.107666   -200.000000  -7374.997559    139.731293
   14629           0     -1368.107666   -200.000000  -7624.999023    139.362274
   14630           0     -1368.107666   -200.000000  -7875.000977    138.834518
   14631           0     -1368.107666   -200.000000  -8124.999512    138.154800
   14632           0     -1368.107666   -200.000000  -8374.998047    137.334488
   14633           0     -1368.107666   -200.000000  -8625.000000    136.391159
   14634           0     -1368.107666   -200.000000  -8875.001953    135.351212
   14635           0     -1368.107666   -200.000000  -9125.000000    134.252426
   14636           0     -1368.107666   -200.000000  -9374.998047    133.146515
   14637           0     -1368.107666   -200.000000  -9625.000000    132.100082
   14638           0     -1368.107666   -200.000000  -9874.998047    131.195267
   14639           0     -1368.107666   -200.000000  -10125.00000    130.525574
   14640           0     -1368.107666   -200.000000  -10375.00000    130.186752
   14641           0     -1368.107666   -200.000000  -10624.99804    130.258636
   14642           0     -1368.107666   -200.000000  -10875.00293    130.781189
   14643           0     -1368.107666   -200.000000  -11125.00195    131.714844
   14644           0     -1368.107666   -200.000000  -11375.00097    132.905365
   14645           0     -1368.107666   -200.000000  -11625.00097    134.038589
   14646           0     -1368.107666   -200.000000  -11875.00000    134.622604
   14647           0     -1368.107666   -200.000000  -12125.00000    134.013245
   14648           0     -1368.107666   -200.000000  -12375.00000    131.518021
   14649           0     -1368.107666   -200.000000  -12625.00097    126.978539
   14650           0     -1368.107666   -200.000000  -12874.99609    121.787086
   14651           0     -1368.107666   -200.000000  -13124.99414    123.028595
   14652           0     -1368.107666   -200.000000  -13374.99609    147.724289
   14653           0     -1616.854492   -200.000000   -124.999985     87.475616
   14654           0     -1616.854492   -200.000000   -374.999939     93.897614
   14655           0     -1616.854492   -200.000000   -624.999878    112.662346
   14656           0     -1616.854492   -200.000000   -874.999756    125.587982
   14657           0     -1616.854492   -200.000000  -1124.999878    132.309937
   14658           0     -1616.854492   -200.000000  -1375.000488    133.671448
   14659           0     -1616.854492   -200.000000  -1625.000000    131.607300
   14660           0     -1616.854492   -200.000000  -1874.999023    127.275261
   14661           0     -1616.854492   -200.000000  -2125.000244    121.827011
   14662           0     -1616.854492   -200.000000  -2375.000488    115.979767
   14663           0     -1616.854492   -200.000000  -2624.999512    110.313156
   14664           0     -1616.854492   -200.000000  -2874.998779    105.169319
   14665           0     -1616.854492   -200.000000  -3124.999512    100.763573
   14666           0     -1616.854492   -200.000000  -3375.000977     97.176857
   14667           0     -1616.854492   -200.000000  -3625.000488     94.405197
   14668           0     -1616.854492   -200.000000  -3875.000488     92.378815
   14669           0     -1616.854492   -200.000000  -4125.000977     90.994095
   14670           0     -1616.854492   -200.000000  -4375.000977     90.131416
   14671           0     -1616.854492   -200.000000  -4625.000977     89.672592
   14672           0     -1616.854492   -200.000000  -4875.000000     89.510483
   14673           0     -1616.854492   -200.000000  -5124.999023     89.553528
   14674           0     -1616.854492   -200.000000  -5374.998047     89.727486
   14675           0     -1616.854492   -200.000000  -5625.000000     89.974510
   14676           0     -1616.854492   -200.000000  -5875.001953     90.250702
   14677           0     -1616.854492   -200.000000  -6125.001953     90.524185
   14678           0     -1616.854492   -200.000000  -6375.000000     90.772636
   14679           0     -1616.854492   -200.000000  -6624.999023     90.982178
   14680           0     -1616.854492   -200.000000  -6875.001465     91.146179
   14681           0     -1616.854492   -200.000000  -7124.999023     91.264015
   14682           0     -1616.854492   -200.000000  -7374.997559     91.340958
   14683           0     -1616.854492   -200.000000  -7624.999023     91.389351
   14684           0     -1616.854492   -200.000000  -7875.000977     91.429855
   14685           0     -1616.854492   -200.000000  -8124.999512     91.491791
   14686           0     -1616.854492   -200.000000  -8374.998047     91.615479
   14687           0     -1616.854492   -200.000000  -8625.000000     91.855453
   14688           0     -1616.854492   -200.000000  -8875.001953     92.281624
   14689           0     -1616.854492   -200.000000  -9125.000000     92.979622
   14690           0     -1616.854492   -200.000000  -9374.998047     94.050514
   14691           0     -1616.854492   -200.000000  -9625.000000     95.607826
   14692           0     -1616.854492   -200.000000  -9874.998047     97.767052
   14693           0     -1616.854492   -200.000000  -10125.00000    100.632874
   14694           0     -1616.854492   -200.000000  -10375.00000    104.278183
   14695           0     -1616.854492   -200.000000  -10624.99804    108.721550
   14696           0     -1616.854492   -200.000000  -10875.00293    113.894035
   14697           0     -1616.854492   -200.000000  -11125.00195    119.620125
   14698           0     -1616.854492   -200.000000  -11375.00097    125.568352
   14699           0     -1616.854492   -200.000000  -11625.00097    131.253983
   14700           0     -1616.854492   -200.000000  -11875.00000    135.950867
   14701           0     -1616.854492   -200.000000  -12125.00000    138.768753
   14702           0     -1616.854492   -200.000000  -12375.00000    138.500229
   14703           0     -1616.854492   -200.000000  -12625.00097    134.052109
   14704           0     -1616.854492   -200.000000  -12874.99609    124.695900
   14705           0     -1616.854492   -200.000000  -13124.99414    113.305244
   14706           0     -1616.854492   -200.000000  -13374.99609    113.372177
   14707           0     -1865.601318   -200.000000   -124.999985     48.657867
   14708           0     -1865.601318   -200.000000   -374.999969     88.148674
   14709           0     -1865.601318   -200.000000   -624.999939    114.200470
   14710           0     -1865.601318   -200.000000   -874.999878    129.496506
   14711           0     -1865.601318   -200.000000  -1125.000000    135.268051
   14712           0     -1865.601318   -200.000000  -1375.000244    135.353195
   14713           0     -1865.601318   -200.000000  -1625.000000    131.057983
   14714           0     -1865.601318   -200.000000  -1874.999512    124.257416
   14715           0     -1865.601318   -200.000000  -2125.000000    115.835884
   14716           0     -1865.601318   -200.000000  -2375.000244    106.716919
   14717           0     -1865.601318   -200.000000  -2624.999756     97.408783
   14718           0     -1865.601318   -200.000000  -2874.999512     88.353180
   14719           0     -1865.601318   -200.000000  -3124.999756     79.802361
   14720           0     -1865.601318   -200.000000  -3375.000488     71.946144
   14721           0     -1865.601318   -200.000000  -3625.000244     64.884743
   14722           0     -1865.601318   -200.000000  -3875.000244     58.675713
   14723           0     -1865.601318   -200.000000  -4125.000488     53.330551
   14724           0     -1865.601318   -200.000000  -4375.000488     48.834072
   14725           0     -1865.601318   -200.000000  -4625.000488     45.143997
   14726           0     -1865.601318   -200.000000  -4875.000000     42.199467
   14727           0     -1865.601318   -200.000000  -5124.999512     39.924255
   14728           0     -1865.601318   -200.000000  -5374.999023     38.232979
   14729           0     -1865.601318   -200.000000  -5625.000000     37.037991
   14730           0     -1865.601318   -200.000000  -5875.000977     36.255825
   14731           0     -1865.601318   -200.000000  -6125.000977     35.813923
   14732           0     -1865.601318   -200.000000  -6375.000000     35.653675
   14733           0     -1865.601318   -200.000000  -6624.999512     35.733624
   14734           0     -1865.601318   -200.000000  -6875.000977     36.028343
   14735           0     -1865.601318   -200.000000  -7124.999023     36.531910
   14736           0     -1865.601318   -200.000000  -7374.999023     37.255157
   14737           0     -1865.601318   -200.000000  -7624.999512     38.226578
   14738           0     -1865.601318   -200.000000  -7875.000488     39.488777
   14739           0     -1865.601318   -200.000000  -8125.000000     41.100620
   14740           0     -1865.601318   -200.000000  -8374.999023     43.132874
   14741           0     -1865.601318   -200.000000  -8625.000000     45.663811
   14742           0     -1865.601318   -200.000000  -8875.000977     48.775177
   14743           0     -1865.601318   -200.000000  -9125.000000     52.547337
   14744           0     -1865.601318   -200.000000  -9374.999023     57.052334
   14745           0     -1865.601318   -200.000000  -9625.000000     62.346184
   14746           0     -1865.601318   -200.000000  -9874.999023     68.463371
   14747           0     -1865.601318   -200.000000  -10125.00000     75.407593
   14748           0     -1865.601318   -200.000000  -10375.00000     83.144058
   14749           0     -1865.601318   -200.000000  -10624.99902     91.578423
   14750           0     -1865.601318   -200.000000  -10875.00195    100.555328
   14751           0     -1865.601318   -200.000000  -11125.00097    109.803932
   14752           0     -1865.601318   -200.000000  -11375.00000    118.960632
   14753           0     -1865.601318   -200.000000  -11625.00000    127.437119
   14754           0     -1865.601318   -200.000000  -11875.00000    134.533463
   14755           0     -1865.601318   -200.000000  -12125.00000    139.101700
   14756           0     -1865.601318   -200.000000  -12375.00000    139.971146
   14757           0     -1865.601318   -200.000000  -12625.00000    135.029556
   14758           0     -1865.601318   -200.000000  -12874.99804    122.958229
   14759           0     -1865.601318   -200.000000  -13124.99707    100.803192
   14760           0     -1865.601318   -200.000000  -13374.99804     81.300255
                       MSC.Patran 21.1.348049 Fri Jul 03 23:12:17 PDT 2015 - Analysis Code: MSC.Nastran 

                                             Load Case: Combined_Loads, Subcase 6 

                                             Result Stress Tensor,  - Layer At Z2 

                                                     Entity: Element Tensor


-Entity ID--El. Pos. ID---X Location----Y Location----Z Location----von Mises---
       1           0      1994.936035     57.882732  -26125.00000     66.058670
       2           0      1994.936035     57.882732  -26375.00000     66.134995
       3           0      1994.936035     57.882732  -26625.00000     59.948521
       4           0      1994.936035     57.882732  -26875.00000     51.905884
       5           0      1994.936035     57.882732  -27125.00000     47.455723
       6           0      1994.936035     57.882732  -27375.00000     44.031696
       7           0      1994.936035     57.882732  -27625.00000     41.821190
       8           0      1994.936035     57.882732  -27875.00000     40.008152
       9           0      1994.936035     57.882732  -28125.00000     37.794903
      10           0      1994.936035     57.882732  -28375.00000     34.828922
      11           0      1994.936035     57.882732  -28625.00000     30.921173
      12           0      1994.936035     57.882732  -28875.00000     26.091740
      13           0      1994.936035     57.882732  -29125.00000     21.172791
      14           0      1994.936035     57.882732  -29375.00000     16.915878
      15           0      1994.936035     57.882732  -29625.00000     16.069094
      16           0      1994.936035     57.882732  -29875.00000     17.140116
      17           0      1984.807739    173.648193  -26125.00000     72.090988
      18           0      1984.807739    173.648193  -26375.00000     68.956238
      19           0      1984.807739    173.648193  -26625.00000     61.284451
      20           0      1984.807739    173.648193  -26875.00000     53.266220
      21           0      1984.807739    173.648193  -27125.00000     46.049408
      22           0      1984.807739    173.648193  -27375.00000     39.989792
      23           0      1984.807739    173.648193  -27625.00000     34.450260
      24           0      1984.807739    173.648193  -27875.00000     30.080727
      25           0      1984.807739    173.648193  -28125.00000     26.261284
      26           0      1984.807739    173.648193  -28375.00000     23.124828
      27           0      1984.807739    173.648193  -28625.00000     20.280022
      28           0      1984.807739    173.648193  -28875.00000     17.883095
      29           0      1984.807739    173.648193  -29125.00000     15.934617
      30           0      1984.807739    173.648193  -29375.00000     14.732242
      31           0      1984.807739    173.648193  -29625.00000     15.250080
      32           0      1984.807739    173.648193  -29875.00000     15.229905
      33           0      1974.679443    289.413666  -26125.00000     83.988129
      34           0      1974.679443    289.413666  -26375.00000     69.189049
      35           0      1974.679443    289.413666  -26625.00000     64.734436
      36           0      1974.679443    289.413666  -26875.00000     54.796047
      37           0      1974.679443    289.413666  -27125.00000     47.386883
      38           0      1974.679443    289.413666  -27375.00000     39.720707
      39           0      1974.679443    289.413666  -27625.00000     33.571415
      40           0      1974.679443    289.413666  -27875.00000     27.905441
      41           0      1974.679443    289.413666  -28125.00000     23.702845
      42           0      1974.679443    289.413666  -28375.00000     20.220282
      43           0      1974.679443    289.413666  -28625.00000     17.848948
      44           0      1974.679443    289.413666  -28875.00000     16.126184
      45           0      1974.679443    289.413666  -29125.00000     15.207428
      46           0      1974.679443    289.413666  -29375.00000     15.328827
      47           0      1974.679443    289.413666  -29625.00000     15.587074
      48           0      1974.679443    289.413666  -29875.00000     17.001812
      49           0      1954.577026    403.420410  -26125.00000     77.360901
      50           0      1954.577026    403.420410  -26375.00000     68.362503
      51           0      1954.577026    403.420410  -26625.00000     62.808414
      52           0      1954.577026    403.420410  -26875.00000     53.233997
      53           0      1954.577026    403.420410  -27125.00000     46.746948
      54           0      1954.577026    403.420410  -27375.00000     39.703175
      55           0      1954.577026    403.420410  -27625.00000     34.238457
      56           0      1954.577026    403.420410  -27875.00000     29.207949
      57           0      1954.577026    403.420410  -28125.00000     25.315287
      58           0      1954.577026    403.420410  -28375.00000     21.931580
      59           0      1954.577026    403.420410  -28625.00000     19.308266
      60           0      1954.577026    403.420410  -28875.00000     17.133940
      61           0      1954.577026    403.420410  -29125.00000     15.914164
      62           0      1954.577026    403.420410  -29375.00000     15.953155
      63           0      1954.577026    403.420410  -29625.00000     17.120474
      64           0      1954.577026    403.420410  -29875.00000     17.201275
      65           0      1924.500244    515.668335  -26125.00000     63.324360
      66           0      1924.500244    515.668335  -26375.00000     62.244865
      67           0      1924.500244    515.668335  -26625.00000     55.091228
      68           0      1924.500244    515.668335  -26875.00000     48.654076
      69           0      1924.500244    515.668335  -27125.00000     42.505119
      70           0      1924.500244    515.668335  -27375.00000     37.239346
      71           0      1924.500244    515.668335  -27625.00000     31.853237
      72           0      1924.500244    515.668335  -27875.00000     27.414476
      73           0      1924.500244    515.668335  -28125.00000     23.070110
      74           0      1924.500244    515.668335  -28375.00000     19.526323
      75           0      1924.500244    515.668335  -28625.00000     16.339491
      76           0      1924.500244    515.668335  -28875.00000     14.256191
      77           0      1924.500244    515.668335  -29125.00000     13.350792
      78           0      1924.500244    515.668335  -29375.00000     14.246960
      79           0      1924.500244    515.668335  -29625.00000     16.693583
      80           0      1924.500244    515.668335  -29875.00000     18.247366
      81           0      1894.423584    627.916321  -26125.00000     57.653931
      82           0      1894.423584    627.916321  -26375.00000     51.634151
      83           0      1894.423584    627.916321  -26625.00000     49.603325
      84           0      1894.423584    627.916321  -26875.00000     44.288239
      85           0      1894.423584    627.916321  -27125.00000     40.178642
      86           0      1894.423584    627.916321  -27375.00000     35.936470
      87           0      1894.423584    627.916321  -27625.00000     31.902756
      88           0      1894.423584    627.916321  -27875.00000     27.661018
      89           0      1894.423584    627.916321  -28125.00000     23.655254
      90           0      1894.423584    627.916321  -28375.00000     19.387310
      91           0      1894.423584    627.916321  -28625.00000     15.642440
      92           0      1894.423584    627.916321  -28875.00000     12.402801
      93           0      1894.423584    627.916321  -29125.00000     11.169930
      94           0      1894.423584    627.916321  -29375.00000     12.850628
      95           0      1894.423584    627.916321  -29625.00000     15.351485
      96           0      1894.423584    627.916321  -29875.00000     21.941326
      97           0      1854.829346    736.700317  -26125.00000     46.929760
      98           0      1854.829346    736.700317  -26375.00000     42.809044
      99           0      1854.829346    736.700317  -26625.00000     41.945580
     100           0      1854.829346    736.700317  -26875.00000     38.035015
     101           0      1854.829346    736.700317  -27125.00000     35.269024
     102           0      1854.829346    736.700317  -27375.00000     31.850359
     103           0      1854.829346    736.700317  -27625.00000     28.657543
     104           0      1854.829346    736.700317  -27875.00000     24.891926
     105           0      1854.829346    736.700317  -28125.00000     21.163576
     106           0      1854.829346    736.700317  -28375.00000     16.857254
     107           0      1854.829346    736.700317  -28625.00000     12.788565
     108           0      1854.829346    736.700317  -28875.00000      8.614809
     109           0      1854.829346    736.700317  -29125.00000      6.697385
     110           0      1854.829346    736.700317  -29375.00000      8.626892
     111           0      1854.829346    736.700317  -29625.00000     12.428043
     112           0      1854.829346    736.700317  -29875.00000     18.195005
     113           0      1805.717896    842.020203  -26125.00000     33.058151
     114           0      1805.717896    842.020203  -26375.00000     34.680412
     115           0      1805.717896    842.020203  -26625.00000     32.324341
     116           0      1805.717896    842.020203  -26875.00000     30.121656
     117           0      1805.717896    842.020203  -27125.00000     27.950644
     118           0      1805.717896    842.020203  -27375.00000     25.618538
     119           0      1805.717896    842.020203  -27625.00000     22.919582
     120           0      1805.717896    842.020203  -27875.00000     20.154324
     121           0      1805.717896    842.020203  -28125.00000     16.922691
     122           0      1805.717896    842.020203  -28375.00000     13.657924
     123           0      1805.717896    842.020203  -28625.00000      9.899358
     124           0      1805.717896    842.020203  -28875.00000      6.319492
     125           0      1805.717896    842.020203  -29125.00000      2.837774
     126           0      1805.717896    842.020203  -29375.00000      3.366843
     127           0      1805.717896    842.020203  -29625.00000      7.548777
     128           0      1805.717896    842.020203  -29875.00000     10.421710
     129           0      1756.606445    947.340088  -26125.00000     22.842760
     130           0      1756.606445    947.340088  -26375.00000     22.847679
     131           0      1756.606445    947.340088  -26625.00000     22.449570
     132           0      1756.606445    947.340088  -26875.00000     21.515457
     133           0      1756.606445    947.340088  -27125.00000     20.336283
     134           0      1756.606445    947.340088  -27375.00000     19.244078
     135           0      1756.606445    947.340088  -27625.00000     17.658644
     136           0      1756.606445    947.340088  -27875.00000     15.905256
     137           0      1756.606445    947.340088  -28125.00000     13.817367
     138           0      1756.606445    947.340088  -28375.00000     11.408112
     139           0      1756.606445    947.340088  -28625.00000      8.801447
     140           0      1756.606445    947.340088  -28875.00000      5.902024
     141           0      1756.606445    947.340088  -29125.00000      3.113819
     142           0      1756.606445    947.340088  -29375.00000      1.372676
     143           0      1756.606445    947.340088  -29625.00000      3.758604
     144           0      1756.606445    947.340088  -29875.00000      6.134310
     145           0      1698.723633   1047.595947  -26125.00000     14.055079
     146           0      1698.723633   1047.595947  -26375.00000     13.857076
     147           0      1698.723633   1047.595947  -26625.00000     14.472065
     148           0      1698.723633   1047.595947  -26875.00000     14.545804
     149           0      1698.723633   1047.595947  -27125.00000     14.441254
     150           0      1698.723633   1047.595947  -27375.00000     14.236186
     151           0      1698.723633   1047.595947  -27625.00000     13.728112
     152           0      1698.723633   1047.595947  -27875.00000     12.945331
     153           0      1698.723633   1047.595947  -28125.00000     11.861229
     154           0      1698.723633   1047.595947  -28375.00000     10.457175
     155           0      1698.723633   1047.595947  -28625.00000      8.915440
     156           0      1698.723633   1047.595947  -28875.00000      7.166465
     157           0      1698.723633   1047.595947  -29125.00000      5.623634
     158           0      1698.723633   1047.595947  -29375.00000      4.663735
     159           0      1698.723633   1047.595947  -29625.00000      4.133144
     160           0      1698.723633   1047.595947  -29875.00000      4.227145
     161           0      1632.069702   1142.787598  -26125.00000      6.501095
     162           0      1632.069702   1142.787598  -26375.00000      8.894628
     163           0      1632.069702   1142.787598  -26625.00000      9.565933
     164           0      1632.069702   1142.787598  -26875.00000     10.197271
     165           0      1632.069702   1142.787598  -27125.00000     10.936104
     166           0      1632.069702   1142.787598  -27375.00000     11.238605
     167           0      1632.069702   1142.787598  -27625.00000     11.453414
     168           0      1632.069702   1142.787598  -27875.00000     11.353159
     169           0      1632.069702   1142.787598  -28125.00000     11.055283
     170           0      1632.069702   1142.787598  -28375.00000     10.579102
     171           0      1632.069702   1142.787598  -28625.00000      9.910782
     172           0      1632.069702   1142.787598  -28875.00000      9.316010
     173           0      1632.069702   1142.787598  -29125.00000      8.567839
     174           0      1632.069702   1142.787598  -29375.00000      8.226528
     175           0      1632.069702   1142.787598  -29625.00000      8.026634
     176           0      1632.069702   1142.787598  -29875.00000      6.936571
     177           0      1565.415771   1237.979248  -26125.00000      2.638468
     178           0      1565.415771   1237.979248  -26375.00000      0.995984
     179           0      1565.415771   1237.979248  -26625.00000      2.174465
     180           0      1565.415771   1237.979248  -26875.00000      2.804276
     181           0      1565.415771   1237.979248  -27125.00000      3.632967
     182           0      1565.415771   1237.979248  -27375.00000      4.266152
     183           0      1565.415771   1237.979248  -27625.00000      4.745414
     184           0      1565.415771   1237.979248  -27875.00000      5.119756
     185           0      1565.415771   1237.979248  -28125.00000      5.434007
     186           0      1565.415771   1237.979248  -28375.00000      5.723119
     187           0      1565.415771   1237.979248  -28625.00000      6.130446
     188           0      1565.415771   1237.979248  -28875.00000      6.581559
     189           0      1565.415771   1237.979248  -29125.00000      7.269709
     190           0      1565.415771   1237.979248  -29375.00000      8.055464
     191           0      1565.415771   1237.979248  -29625.00000      8.577379
     192           0      1565.415771   1237.979248  -29875.00000     10.314343
     193           0      1491.003052   1326.660889  -26125.00000      6.748721
     194           0      1491.003052   1326.660889  -26375.00000      5.726899
     195           0      1491.003052   1326.660889  -26625.00000      5.573256
     196           0      1491.003052   1326.660889  -26875.00000      4.758485
     197           0      1491.003052   1326.660889  -27125.00000      4.638377
     198           0      1491.003052   1326.660889  -27375.00000      4.219485
     199           0      1491.003052   1326.660889  -27625.00000      4.055034
     200           0      1491.003052   1326.660889  -27875.00000      3.926465
     201           0      1491.003052   1326.660889  -28125.00000      3.967676
     202           0      1491.003052   1326.660889  -28375.00000      4.340136
     203           0      1491.003052   1326.660889  -28625.00000      4.922435
     204           0      1491.003052   1326.660889  -28875.00000      5.905192
     205           0      1491.003052   1326.660889  -29125.00000      6.892335
     206           0      1491.003052   1326.660889  -29375.00000      8.510783
     207           0      1491.003052   1326.660889  -29625.00000      9.369307
     208           0      1491.003052   1326.660889  -29875.00000     10.337397
     209           0      1408.831787   1408.832031  -26125.00000      8.452975
     210           0      1408.831787   1408.832031  -26375.00000      9.046672
     211           0      1408.831787   1408.832031  -26625.00000      7.877504
     212           0      1408.831787   1408.832031  -26875.00000      7.727297
     213           0      1408.831787   1408.832031  -27125.00000      7.014501
     214           0      1408.831787   1408.832031  -27375.00000      6.711012
     215           0      1408.831787   1408.832031  -27625.00000      6.215418
     216           0      1408.831787   1408.832031  -27875.00000      5.953716
     217           0      1408.831787   1408.832031  -28125.00000      5.798677
     218           0      1408.831787   1408.832031  -28375.00000      5.910094
     219           0      1408.831787   1408.832031  -28625.00000      6.294136
     220           0      1408.831787   1408.832031  -28875.00000      7.041846
     221           0      1408.831787   1408.832031  -29125.00000      7.803269
     222           0      1408.831787   1408.832031  -29375.00000      9.387217
     223           0      1408.831787   1408.832031  -29625.00000     10.259297
     224           0      1408.831787   1408.832031  -29875.00000     10.235185
     225           0      1326.660767   1491.003174  -26125.00000     11.318610
     226           0      1326.660767   1491.003174  -26375.00000     10.267911
     227           0      1326.660767   1491.003174  -26625.00000      9.674238
     228           0      1326.660767   1491.003174  -26875.00000      8.192924
     229           0      1326.660767   1491.003174  -27125.00000      7.296328
     230           0      1326.660767   1491.003174  -27375.00000      5.935917
     231           0      1326.660767   1491.003174  -27625.00000      4.805599
     232           0      1326.660767   1491.003174  -27875.00000      3.430755
     233           0      1326.660767   1491.003174  -28125.00000      2.222420
     234           0      1326.660767   1491.003174  -28375.00000      1.283391
     235           0      1326.660767   1491.003174  -28625.00000      1.844532
     236           0      1326.660767   1491.003174  -28875.00000      3.129910
     237           0      1326.660767   1491.003174  -29125.00000      4.812091
     238           0      1326.660767   1491.003174  -29375.00000      6.528447
     239           0      1326.660767   1491.003174  -29625.00000      7.609996
     240           0      1326.660767   1491.003174  -29875.00000     10.685874
     241           0      1237.979248   1565.415771  -26125.00000     11.701795
     242           0      1237.979248   1565.415771  -26375.00000     10.358508
     243           0      1237.979248   1565.415771  -26625.00000      9.979298
     244           0      1237.979248   1565.415771  -26875.00000      8.488532
     245           0      1237.979248   1565.415771  -27125.00000      7.699982
     246           0      1237.979248   1565.415771  -27375.00000      6.329453
     247           0      1237.979248   1565.415771  -27625.00000      5.277695
     248           0      1237.979248   1565.415771  -27875.00000      3.901218
     249           0      1237.979248   1565.415771  -28125.00000      2.669556
     250           0      1237.979248   1565.415771  -28375.00000      1.389103
     251           0      1237.979248   1565.415771  -28625.00000      1.046707
     252           0      1237.979248   1565.415771  -28875.00000      2.240889
     253           0      1237.979248   1565.415771  -29125.00000      3.696713
     254           0      1237.979248   1565.415771  -29375.00000      5.512212
     255           0      1237.979248   1565.415771  -29625.00000      6.471408
     256           0      1237.979248   1565.415771  -29875.00000      8.833951
     257           0      1142.787476   1632.069824  -26125.00000      9.214089
     258           0      1142.787476   1632.069824  -26375.00000      9.816682
     259           0      1142.787476   1632.069824  -26625.00000      8.147406
     260           0      1142.787476   1632.069824  -26875.00000      7.701041
     261           0      1142.787476   1632.069824  -27125.00000      6.581129
     262           0      1142.787476   1632.069824  -27375.00000      5.906938
     263           0      1142.787476   1632.069824  -27625.00000      5.001160
     264           0      1142.787476   1632.069824  -27875.00000      4.367425
     265           0      1142.787476   1632.069824  -28125.00000      3.850827
     266           0      1142.787476   1632.069824  -28375.00000      3.687839
     267           0      1142.787476   1632.069824  -28625.00000      3.900651
     268           0      1142.787476   1632.069824  -28875.00000      4.558399
     269           0      1142.787476   1632.069824  -29125.00000      5.191871
     270           0      1142.787476   1632.069824  -29375.00000      6.636819
     271           0      1142.787476   1632.069824  -29625.00000      7.357519
     272           0      1142.787476   1632.069824  -29875.00000      6.754455
     273           0      1047.595825   1698.723877  -26125.00000      8.221609
     274           0      1047.595825   1698.723877  -26375.00000      8.183464
     275           0      1047.595825   1698.723877  -26625.00000      7.522819
     276           0      1047.595825   1698.723877  -26875.00000      6.765950
     277           0      1047.595825   1698.723877  -27125.00000      6.164029
     278           0      1047.595825   1698.723877  -27375.00000      5.504090
     279           0      1047.595825   1698.723877  -27625.00000      4.819085
     280           0      1047.595825   1698.723877  -27875.00000      4.191295
     281           0      1047.595825   1698.723877  -28125.00000      3.508059
     282           0      1047.595825   1698.723877  -28375.00000      3.014781
     283           0      1047.595825   1698.723877  -28625.00000      2.564589
     284           0      1047.595825   1698.723877  -28875.00000      2.508288
     285           0      1047.595825   1698.723877  -29125.00000      2.746333
     286           0      1047.595825   1698.723877  -29375.00000      3.350991
     287           0      1047.595825   1698.723877  -29625.00000      3.767644
     288           0      1047.595825   1698.723877  -29875.00000      4.934732
     289           0       947.339905   1756.606445  -26125.00000      6.327203
     290           0       947.339905   1756.606445  -26375.00000      6.280664
     291           0       947.339905   1756.606445  -26625.00000      6.212711
     292           0       947.339905   1756.606445  -26875.00000      5.489660
     293           0       947.339905   1756.606445  -27125.00000      5.339184
     294           0       947.339905   1756.606445  -27375.00000      4.745700
     295           0       947.339905   1756.606445  -27625.00000      4.462349
     296           0       947.339905   1756.606445  -27875.00000      3.949896
     297           0       947.339905   1756.606445  -28125.00000      3.631503
     298           0       947.339905   1756.606445  -28375.00000      3.184793
     299           0       947.339905   1756.606445  -28625.00000      2.982580
     300           0       947.339905   1756.606445  -28875.00000      2.648559
     301           0       947.339905   1756.606445  -29125.00000      2.792381
     302           0       947.339905   1756.606445  -29375.00000      2.781269
     303           0       947.339905   1756.606445  -29625.00000      2.789413
     304           0       947.339905   1756.606445  -29875.00000      4.278821
     305           0       842.020020   1805.718018  -26125.00000      5.589921
     306           0       842.020020   1805.718018  -26375.00000      6.864599
     307           0       842.020020   1805.718018  -26625.00000      5.976104
     308           0       842.020020   1805.718018  -26875.00000      5.771619
     309           0       842.020020   1805.718018  -27125.00000      5.500587
     310           0       842.020020   1805.718018  -27375.00000      5.289629
     311           0       842.020020   1805.718018  -27625.00000      5.148056
     312           0       842.020020   1805.718018  -27875.00000      5.042880
     313           0       842.020020   1805.718018  -28125.00000      4.992236
     314           0       842.020020   1805.718018  -28375.00000      4.991360
     315           0       842.020020   1805.718018  -28625.00000      5.002229
     316           0       842.020020   1805.718018  -28875.00000      5.116554
     317           0       842.020020   1805.718018  -29125.00000      5.097445
     318           0       842.020020   1805.718018  -29375.00000      5.389476
     319           0       842.020020   1805.718018  -29625.00000      5.614168
     320           0       842.020020   1805.718018  -29875.00000      3.416743
     321           0       736.700073   1854.829468  -26125.00000      5.814744
     322           0       736.700073   1854.829468  -26375.00000      5.275867
     323           0       736.700073   1854.829468  -26625.00000      4.943454
     324           0       736.700073   1854.829468  -26875.00000      4.872596
     325           0       736.700073   1854.829468  -27125.00000      4.466338
     326           0       736.700073   1854.829468  -27375.00000      4.412429
     327           0       736.700073   1854.829468  -27625.00000      4.092844
     328           0       736.700073   1854.829468  -27875.00000      3.991095
     329           0       736.700073   1854.829468  -28125.00000      3.714713
     330           0       736.700073   1854.829468  -28375.00000      3.602424
     331           0       736.700073   1854.829468  -28625.00000      3.323429
     332           0       736.700073   1854.829468  -28875.00000      3.248470
     333           0       736.700073   1854.829468  -29125.00000      2.895001
     334           0       736.700073   1854.829468  -29375.00000      2.911516
     335           0       736.700073   1854.829468  -29625.00000      2.618463
     336           0       736.700073   1854.829468  -29875.00000      1.163312
     337           0       627.916199   1894.423584  -26125.00000      5.396313
     338           0       627.916199   1894.423584  -26375.00000      5.930110
     339           0       627.916199   1894.423584  -26625.00000      5.677090
     340           0       627.916199   1894.423584  -26875.00000      5.079092
     341           0       627.916199   1894.423584  -27125.00000      4.784463
     342           0       627.916199   1894.423584  -27375.00000      4.369759
     343           0       627.916199   1894.423584  -27625.00000      4.105264
     344           0       627.916199   1894.423584  -27875.00000      3.742802
     345           0       627.916199   1894.423584  -28125.00000      3.571588
     346           0       627.916199   1894.423584  -28375.00000      3.244763
     347           0       627.916199   1894.423584  -28625.00000      3.178612
     348           0       627.916199   1894.423584  -28875.00000      2.877133
     349           0       627.916199   1894.423584  -29125.00000      2.926064
     350           0       627.916199   1894.423584  -29375.00000      2.648648
     351           0       627.916199   1894.423584  -29625.00000      2.834499
     352           0       627.916199   1894.423584  -29875.00000      2.986145
     353           0       515.668213   1924.500366  -26125.00000      8.107946
     354           0       515.668213   1924.500366  -26375.00000      9.219590
     355           0       515.668213   1924.500366  -26625.00000      8.747736
     356           0       515.668213   1924.500366  -26875.00000      7.766131
     357           0       515.668213   1924.500366  -27125.00000      7.460116
     358           0       515.668213   1924.500366  -27375.00000      6.873933
     359           0       515.668213   1924.500366  -27625.00000      6.514942
     360           0       515.668213   1924.500366  -27875.00000      6.148406
     361           0       515.668213   1924.500366  -28125.00000      5.853414
     362           0       515.668213   1924.500366  -28375.00000      5.643518
     363           0       515.668213   1924.500366  -28625.00000      5.438549
     364           0       515.668213   1924.500366  -28875.00000      5.347320
     365           0       515.668213   1924.500366  -29125.00000      5.245946
     366           0       515.668213   1924.500366  -29375.00000      5.162885
     367           0       515.668213   1924.500366  -29625.00000      5.689953
     368           0       515.668213   1924.500366  -29875.00000      3.280032
     369           0       403.420227   1954.577148  -26125.00000      9.622306
     370           0       403.420227   1954.577148  -26375.00000      7.885617
     371           0       403.420227   1954.577148  -26625.00000      7.450959
     372           0       403.420227   1954.577148  -26875.00000      6.623514
     373           0       403.420227   1954.577148  -27125.00000      5.649126
     374           0       403.420227   1954.577148  -27375.00000      5.022486
     375           0       403.420227   1954.577148  -27625.00000      4.222097
     376           0       403.420227   1954.577148  -27875.00000      3.661804
     377           0       403.420227   1954.577148  -28125.00000      3.076751
     378           0       403.420227   1954.577148  -28375.00000      2.722732
     379           0       403.420227   1954.577148  -28625.00000      2.403214
     380           0       403.420227   1954.577148  -28875.00000      2.473690
     381           0       403.420227   1954.577148  -29125.00000      2.363395
     382           0       403.420227   1954.577148  -29375.00000      2.885584
     383           0       403.420227   1954.577148  -29625.00000      3.044734
     384           0       403.420227   1954.577148  -29875.00000      2.777335
     385           0       289.413513   1974.679565  -26125.00000      9.772247
     386           0       289.413513   1974.679565  -26375.00000      8.815566
     387           0       289.413513   1974.679565  -26625.00000      8.220728
     388           0       289.413513   1974.679565  -26875.00000      7.080161
     389           0       289.413513   1974.679565  -27125.00000      6.084289
     390           0       289.413513   1974.679565  -27375.00000      5.184255
     391           0       289.413513   1974.679565  -27625.00000      4.302749
     392           0       289.413513   1974.679565  -27875.00000      3.459473
     393           0       289.413513   1974.679565  -28125.00000      2.814356
     394           0       289.413513   1974.679565  -28375.00000      2.140537
     395           0       289.413513   1974.679565  -28625.00000      1.941522
     396           0       289.413513   1974.679565  -28875.00000      1.814368
     397           0       289.413513   1974.679565  -29125.00000      2.163015
     398           0       289.413513   1974.679565  -29375.00000      2.590756
     399           0       289.413513   1974.679565  -29625.00000      3.271987
     400           0       289.413513   1974.679565  -29875.00000      3.510123
     401           0       173.648041   1984.807617  -26125.00000     10.734365
     402           0       173.648041   1984.807617  -26375.00000     11.680335
     403           0       173.648041   1984.807617  -26625.00000     11.036184
     404           0       173.648041   1984.807617  -26875.00000      9.546804
     405           0       173.648041   1984.807617  -27125.00000      8.933201
     406           0       173.648041   1984.807617  -27375.00000      7.961904
     407           0       173.648041   1984.807617  -27625.00000      7.250266
     408           0       173.648041   1984.807617  -27875.00000      6.562006
     409           0       173.648041   1984.807617  -28125.00000      5.972727
     410           0       173.648041   1984.807617  -28375.00000      5.550785
     411           0       173.648041   1984.807617  -28625.00000      5.188483
     412           0       173.648041   1984.807617  -28875.00000      5.032866
     413           0       173.648041   1984.807617  -29125.00000      5.006353
     414           0       173.648041   1984.807617  -29375.00000      4.928071
     415           0       173.648041   1984.807617  -29625.00000      5.861689
     416           0       173.648041   1984.807617  -29875.00000      3.697817
     417           0        57.882576   1994.935791  -26125.00000     11.152068
     418           0        57.882576   1994.935791  -26375.00000      9.480728
     419           0        57.882576   1994.935791  -26625.00000      8.867249
     420           0        57.882576   1994.935791  -26875.00000      7.638924
     421           0        57.882576   1994.935791  -27125.00000      6.429899
     422           0        57.882576   1994.935791  -27375.00000      5.432653
     423           0        57.882576   1994.935791  -27625.00000      4.343670
     424           0        57.882576   1994.935791  -27875.00000      3.368883
     425           0        57.882576   1994.935791  -28125.00000      2.470992
     426           0        57.882576   1994.935791  -28375.00000      1.633581
     427           0        57.882576   1994.935791  -28625.00000      1.185431
     428           0        57.882576   1994.935791  -28875.00000      1.324125
     429           0        57.882576   1994.935791  -29125.00000      1.749816
     430           0        57.882576   1994.935791  -29375.00000      2.631156
     431           0        57.882576   1994.935791  -29625.00000      3.318599
     432           0        57.882576   1994.935791  -29875.00000      3.633308
     433           0       -57.882874   1994.935791  -26125.00000     11.193007
     434           0       -57.882874   1994.935791  -26375.00000      9.442855
     435           0       -57.882874   1994.935791  -26625.00000      8.844455
     436           0       -57.882874   1994.935791  -26875.00000      7.632168
     437           0       -57.882874   1994.935791  -27125.00000      6.418918
     438           0       -57.882874   1994.935791  -27375.00000      5.439722
     439           0       -57.882874   1994.935791  -27625.00000      4.352775
     440           0       -57.882874   1994.935791  -27875.00000      3.403380
     441           0       -57.882874   1994.935791  -28125.00000      2.512484
     442           0       -57.882874   1994.935791  -28375.00000      1.735572
     443           0       -57.882874   1994.935791  -28625.00000      1.289279
     444           0       -57.882874   1994.935791  -28875.00000      1.472467
     445           0       -57.882874   1994.935791  -29125.00000      1.811651
     446           0       -57.882874   1994.935791  -29375.00000      2.716330
     447           0       -57.882874   1994.935791  -29625.00000      3.333254
     448           0       -57.882874   1994.935791  -29875.00000      3.600197
     449           0      -173.648315   1984.807617  -26125.00000     10.650595
     450           0      -173.648315   1984.807617  -26375.00000     11.605039
     451           0      -173.648315   1984.807617  -26625.00000     10.974478
     452           0      -173.648315   1984.807617  -26875.00000      9.505113
     453           0      -173.648315   1984.807617  -27125.00000      8.905112
     454           0      -173.648315   1984.807617  -27375.00000      7.952614
     455           0      -173.648315   1984.807617  -27625.00000      7.258273
     456           0      -173.648315   1984.807617  -27875.00000      6.588245
     457           0      -173.648315   1984.807617  -28125.00000      6.017428
     458           0      -173.648315   1984.807617  -28375.00000      5.610548
     459           0      -173.648315   1984.807617  -28625.00000      5.263652
     460           0      -173.648315   1984.807617  -28875.00000      5.114757
     461           0      -173.648315   1984.807617  -29125.00000      5.093830
     462           0      -173.648315   1984.807617  -29375.00000      5.013691
     463           0      -173.648315   1984.807617  -29625.00000      5.933349
     464           0      -173.648315   1984.807617  -29875.00000      3.797035
     465           0      -289.413757   1974.679443  -26125.00000      9.573405
     466           0      -289.413757   1974.679443  -26375.00000      8.715464
     467           0      -289.413757   1974.679443  -26625.00000      8.132229
     468           0      -289.413757   1974.679443  -26875.00000      7.014968
     469           0      -289.413757   1974.679443  -27125.00000      6.069321
     470           0      -289.413757   1974.679443  -27375.00000      5.198328
     471           0      -289.413757   1974.679443  -27625.00000      4.376265
     472           0      -289.413757   1974.679443  -27875.00000      3.583750
     473           0      -289.413757   1974.679443  -28125.00000      3.019260
     474           0      -289.413757   1974.679443  -28375.00000      2.425289
     475           0      -289.413757   1974.679443  -28625.00000      2.296287
     476           0      -289.413757   1974.679443  -28875.00000      2.177197
     477           0      -289.413757   1974.679443  -29125.00000      2.506618
     478           0      -289.413757   1974.679443  -29375.00000      2.838768
     479           0      -289.413757   1974.679443  -29625.00000      3.500910
     480           0      -289.413757   1974.679443  -29875.00000      3.740164
     481           0      -403.420471   1954.577026  -26125.00000      9.536892
     482           0      -403.420471   1954.577026  -26375.00000      7.752331
     483           0      -403.420471   1954.577026  -26625.00000      7.343091
     484           0      -403.420471   1954.577026  -26875.00000      6.575657
     485           0      -403.420471   1954.577026  -27125.00000      5.639089
     486           0      -403.420471   1954.577026  -27375.00000      5.072862
     487           0      -403.420471   1954.577026  -27625.00000      4.325921
     488           0      -403.420471   1954.577026  -27875.00000      3.838942
     489           0      -403.420471   1954.577026  -28125.00000      3.314723
     490           0      -403.420471   1954.577026  -28375.00000      3.039237
     491           0      -403.420471   1954.577026  -28625.00000      2.756337
     492           0      -403.420471   1954.577026  -28875.00000      2.855046
     493           0      -403.420471   1954.577026  -29125.00000      2.719436
     494           0      -403.420471   1954.577026  -29375.00000      3.210284
     495           0      -403.420471   1954.577026  -29625.00000      3.295207
     496           0      -403.420471   1954.577026  -29875.00000      2.929482
     497           0      -515.668457   1924.500244  -26125.00000      7.945215
     498           0      -515.668457   1924.500244  -26375.00000      9.083663
     499           0      -515.668457   1924.500244  -26625.00000      8.633719
     500           0      -515.668457   1924.500244  -26875.00000      7.712997
     501           0      -515.668457   1924.500244  -27125.00000      7.433424
     502           0      -515.668457   1924.500244  -27375.00000      6.892954
     503           0      -515.668457   1924.500244  -27625.00000      6.567680
     504           0      -515.668457   1924.500244  -27875.00000      6.236051
     505           0      -515.668457   1924.500244  -28125.00000      5.972034
     506           0      -515.668457   1924.500244  -28375.00000      5.784119
     507           0      -515.668457   1924.500244  -28625.00000      5.602240
     508           0      -515.668457   1924.500244  -28875.00000      5.517677
     509           0      -515.668457   1924.500244  -29125.00000      5.428164
     510           0      -515.668457   1924.500244  -29375.00000      5.338657
     511           0      -515.668457   1924.500244  -29625.00000      5.850122
     512           0      -515.668457   1924.500244  -29875.00000      3.517860
     513           0      -627.916382   1894.423340  -26125.00000      5.240675
     514           0      -627.916382   1894.423340  -26375.00000      5.900754
     515           0      -627.916382   1894.423340  -26625.00000      5.693265
     516           0      -627.916382   1894.423340  -26875.00000      5.128454
     517           0      -627.916382   1894.423340  -27125.00000      4.907443
     518           0      -627.916382   1894.423340  -27375.00000      4.524251
     519           0      -627.916382   1894.423340  -27625.00000      4.317013
     520           0      -627.916382   1894.423340  -27875.00000      3.990475
     521           0      -627.916382   1894.423340  -28125.00000      3.858403
     522           0      -627.916382   1894.423340  -28375.00000      3.563452
     523           0      -627.916382   1894.423340  -28625.00000      3.516140
     524           0      -627.916382   1894.423340  -28875.00000      3.232839
     525           0      -627.916382   1894.423340  -29125.00000      3.282270
     526           0      -627.916382   1894.423340  -29375.00000      2.996323
     527           0      -627.916382   1894.423340  -29625.00000      3.168164
     528           0      -627.916382   1894.423340  -29875.00000      3.342507
     529           0      -736.700378   1854.829224  -26125.00000      5.959954
     530           0      -736.700378   1854.829224  -26375.00000      5.480783
     531           0      -736.700378   1854.829224  -26625.00000      5.127880
     532           0      -736.700378   1854.829224  -26875.00000      5.087377
     533           0      -736.700378   1854.829224  -27125.00000      4.710275
     534           0      -736.700378   1854.829224  -27375.00000      4.669137
     535           0      -736.700378   1854.829224  -27625.00000      4.366903
     536           0      -736.700378   1854.829224  -27875.00000      4.277450
     537           0      -736.700378   1854.829224  -28125.00000      4.007224
     538           0      -736.700378   1854.829224  -28375.00000      3.907088
     539           0      -736.700378   1854.829224  -28625.00000      3.624027
     540           0      -736.700378   1854.829224  -28875.00000      3.561751
     541           0      -736.700378   1854.829224  -29125.00000      3.195381
     542           0      -736.700378   1854.829224  -29375.00000      3.222600
     543           0      -736.700378   1854.829224  -29625.00000      2.920929
     544           0      -736.700378   1854.829224  -29875.00000      1.456991
     545           0      -842.020264   1805.717773  -26125.00000      5.930455
     546           0      -842.020264   1805.717773  -26375.00000      7.152505
     547           0      -842.020264   1805.717773  -26625.00000      6.219247
     548           0      -842.020264   1805.717773  -26875.00000      6.050441
     549           0      -842.020264   1805.717773  -27125.00000      5.737646
     550           0      -842.020264   1805.717773  -27375.00000      5.528336
     551           0      -842.020264   1805.717773  -27625.00000      5.358569
     552           0      -842.020264   1805.717773  -27875.00000      5.238073
     553           0      -842.020264   1805.717773  -28125.00000      5.166525
     554           0      -842.020264   1805.717773  -28375.00000      5.144161
     555           0      -842.020264   1805.717773  -28625.00000      5.142458
     556           0      -842.020264   1805.717773  -28875.00000      5.235575
     557           0      -842.020264   1805.717773  -29125.00000      5.216230
     558           0      -842.020264   1805.717773  -29375.00000      5.489439
     559           0      -842.020264   1805.717773  -29625.00000      5.720965
     560           0      -842.020264   1805.717773  -29875.00000      3.577315
     561           0      -947.340088   1756.606201  -26125.00000      6.991450
     562           0      -947.340088   1756.606201  -26375.00000      6.922296
     563           0      -947.340088   1756.606201  -26625.00000      6.833907
     564           0      -947.340088   1756.606201  -26875.00000      6.049991
     565           0      -947.340088   1756.606201  -27125.00000      5.860931
     566           0      -947.340088   1756.606201  -27375.00000      5.212838
     567           0      -947.340088   1756.606201  -27625.00000      4.885904
     568           0      -947.340088   1756.606201  -27875.00000      4.321908
     569           0      -947.340088   1756.606201  -28125.00000      3.956764
     570           0      -947.340088   1756.606201  -28375.00000      3.462811
     571           0      -947.340088   1756.606201  -28625.00000      3.211055
     572           0      -947.340088   1756.606201  -28875.00000      2.835114
     573           0      -947.340088   1756.606201  -29125.00000      2.940128
     574           0      -947.340088   1756.606201  -29375.00000      2.893941
     575           0      -947.340088   1756.606201  -29625.00000      2.913642
     576           0      -947.340088   1756.606201  -29875.00000      4.453028
     577           0     -1047.595947   1698.723511  -26125.00000      8.962902
     578           0     -1047.595947   1698.723511  -26375.00000      8.937798
     579           0     -1047.595947   1698.723511  -26625.00000      8.223903
     580           0     -1047.595947   1698.723511  -26875.00000      7.400070
     581           0     -1047.595947   1698.723511  -27125.00000      6.751563
     582           0     -1047.595947   1698.723511  -27375.00000      6.024945
     583           0     -1047.595947   1698.723511  -27625.00000      5.284229
     584           0     -1047.595947   1698.723511  -27875.00000      4.589039
     585           0     -1047.595947   1698.723511  -28125.00000      3.838337
     586           0     -1047.595947   1698.723511  -28375.00000      3.270316
     587           0     -1047.595947   1698.723511  -28625.00000      2.722750
     588           0     -1047.595947   1698.723511  -28875.00000      2.594091
     589           0     -1047.595947   1698.723511  -29125.00000      2.744880
     590           0     -1047.595947   1698.723511  -29375.00000      3.350769
     591           0     -1047.595947   1698.723511  -29625.00000      3.783376
     592           0     -1047.595947   1698.723511  -29875.00000      4.908412
     593           0     -1142.787598   1632.069580  -26125.00000     10.000461
     594           0     -1142.787598   1632.069580  -26375.00000     10.551435
     595           0     -1142.787598   1632.069580  -26625.00000      8.824666
     596           0     -1142.787598   1632.069580  -26875.00000      8.325487
     597           0     -1142.787598   1632.069580  -27125.00000      7.134713
     598           0     -1142.787598   1632.069580  -27375.00000      6.399959
     599           0     -1142.787598   1632.069580  -27625.00000      5.407512
     600           0     -1142.787598   1632.069580  -27875.00000      4.684150
     601           0     -1142.787598   1632.069580  -28125.00000      4.048064
     602           0     -1142.787598   1632.069580  -28375.00000      3.758785
     603           0     -1142.787598   1632.069580  -28625.00000      3.868964
     604           0     -1142.787598   1632.069580  -28875.00000      4.466059
     605           0     -1142.787598   1632.069580  -29125.00000      5.092609
     606           0     -1142.787598   1632.069580  -29375.00000      6.552638
     607           0     -1142.787598   1632.069580  -29625.00000      7.309517
     608           0     -1142.787598   1632.069580  -29875.00000      6.734467
     609           0     -1237.979370   1565.415527  -26125.00000     12.509728
     610           0     -1237.979370   1565.415527  -26375.00000     11.216300
     611           0     -1237.979370   1565.415527  -26625.00000     10.788933
     612           0     -1237.979370   1565.415527  -26875.00000      9.224979
     613           0     -1237.979370   1565.415527  -27125.00000      8.379581
     614           0     -1237.979370   1565.415527  -27375.00000      6.945367
     615           0     -1237.979370   1565.415527  -27625.00000      5.831161
     616           0     -1237.979370   1565.415527  -27875.00000      4.386813
     617           0     -1237.979370   1565.415527  -28125.00000      3.082793
     618           0     -1237.979370   1565.415527  -28375.00000      1.677870
     619           0     -1237.979370   1565.415527  -28625.00000      0.942709
     620           0     -1237.979370   1565.415527  -28875.00000      1.998251
     621           0     -1237.979370   1565.415527  -29125.00000      3.500408
     622           0     -1237.979370   1565.415527  -29375.00000      5.368519
     623           0     -1237.979370   1565.415527  -29625.00000      6.377152
     624           0     -1237.979370   1565.415527  -29875.00000      8.845010
     625           0     -1326.660889   1491.003052  -26125.00000     12.165473
     626           0     -1326.660889   1491.003052  -26375.00000     11.154483
     627           0     -1326.660889   1491.003052  -26625.00000     10.502399
     628           0     -1326.660889   1491.003052  -26875.00000      8.949288
     629           0     -1326.660889   1491.003052  -27125.00000      7.997137
     630           0     -1326.660889   1491.003052  -27375.00000      6.570761
     631           0     -1326.660889   1491.003052  -27625.00000      5.375977
     632           0     -1326.660889   1491.003052  -27875.00000      3.929265
     633           0     -1326.660889   1491.003052  -28125.00000      2.622030
     634           0     -1326.660889   1491.003052  -28375.00000      1.449646
     635           0     -1326.660889   1491.003052  -28625.00000      1.642352
     636           0     -1326.660889   1491.003052  -28875.00000      2.889919
     637           0     -1326.660889   1491.003052  -29125.00000      4.613483
     638           0     -1326.660889   1491.003052  -29375.00000      6.386645
     639           0     -1326.660889   1491.003052  -29625.00000      7.521066
     640           0     -1326.660889   1491.003052  -29875.00000     10.670300
     641           0     -1408.832275   1408.831787  -26125.00000      9.303318
     642           0     -1408.832275   1408.831787  -26375.00000      9.806216
     643           0     -1408.832275   1408.831787  -26625.00000      8.540801
     644           0     -1408.832275   1408.831787  -26875.00000      8.289118
     645           0     -1408.832275   1408.831787  -27125.00000      7.453825
     646           0     -1408.832275   1408.831787  -27375.00000      7.050128
     647           0     -1408.832275   1408.831787  -27625.00000      6.424780
     648           0     -1408.832275   1408.831787  -27875.00000      6.052801
     649           0     -1408.832275   1408.831787  -28125.00000      5.780857
     650           0     -1408.832275   1408.831787  -28375.00000      5.805185
     651           0     -1408.832275   1408.831787  -28625.00000      6.137175
     652           0     -1408.832275   1408.831787  -28875.00000      6.871193
     653           0     -1408.832275   1408.831787  -29125.00000      7.654195
     654           0     -1408.832275   1408.831787  -29375.00000      9.280687
     655           0     -1408.832275   1408.831787  -29625.00000     10.203296
     656           0     -1408.832275   1408.831787  -29875.00000     10.229973
     657           0     -1491.003296   1326.660645  -26125.00000      7.550202
     658           0     -1491.003296   1326.660645  -26375.00000      6.624425
     659           0     -1491.003296   1326.660645  -26625.00000      6.378219
     660           0     -1491.003296   1326.660645  -26875.00000      5.430081
     661           0     -1491.003296   1326.660645  -27125.00000      5.186909
     662           0     -1491.003296   1326.660645  -27375.00000      4.612277
     663           0     -1491.003296   1326.660645  -27625.00000      4.308201
     664           0     -1491.003296   1326.660645  -27875.00000      4.018364
     665           0     -1491.003296   1326.660645  -28125.00000      3.932760
     666           0     -1491.003296   1326.660645  -28375.00000      4.208593
     667           0     -1491.003296   1326.660645  -28625.00000      4.752634
     668           0     -1491.003296   1326.660645  -28875.00000      5.744777
     669           0     -1491.003296   1326.660645  -29125.00000      6.765006
     670           0     -1491.003296   1326.660645  -29375.00000      8.436435
     671           0     -1491.003296   1326.660645  -29625.00000      9.348921
     672           0     -1491.003296   1326.660645  -29875.00000     10.388690
     673           0     -1565.416016   1237.979126  -26125.00000      3.292372
     674           0     -1565.416016   1237.979126  -26375.00000      1.798160
     675           0     -1565.416016   1237.979126  -26625.00000      2.575481
     676           0     -1565.416016   1237.979126  -26875.00000      2.841669
     677           0     -1565.416016   1237.979126  -27125.00000      3.607716
     678           0     -1565.416016   1237.979126  -27375.00000      4.124211
     679           0     -1565.416016   1237.979126  -27625.00000      4.582501
     680           0     -1565.416016   1237.979126  -27875.00000      4.922516
     681           0     -1565.416016   1237.979126  -28125.00000      5.239912
     682           0     -1565.416016   1237.979126  -28375.00000      5.536847
     683           0     -1565.416016   1237.979126  -28625.00000      5.976346
     684           0     -1565.416016   1237.979126  -28875.00000      6.465402
     685           0     -1565.416016   1237.979126  -29125.00000      7.206073
     686           0     -1565.416016   1237.979126  -29375.00000      8.044209
     687           0     -1565.416016   1237.979126  -29625.00000      8.614525
     688           0     -1565.416016   1237.979126  -29875.00000     10.444190
     689           0     -1632.069946   1142.787354  -26125.00000      5.625316
     690           0     -1632.069946   1142.787354  -26375.00000      8.152453
     691           0     -1632.069946   1142.787354  -26625.00000      8.941351
     692           0     -1632.069946   1142.787354  -26875.00000      9.648625
     693           0     -1632.069946   1142.787354  -27125.00000     10.445211
     694           0     -1632.069946   1142.787354  -27375.00000     10.810958
     695           0     -1632.069946   1142.787354  -27625.00000     11.078641
     696           0     -1632.069946   1142.787354  -27875.00000     11.034935
     697           0     -1632.069946   1142.787354  -28125.00000     10.793522
     698           0     -1632.069946   1142.787354  -28375.00000     10.375778
     699           0     -1632.069946   1142.787354  -28625.00000      9.770451
     700           0     -1632.069946   1142.787354  -28875.00000      9.238236
     701           0     -1632.069946   1142.787354  -29125.00000      8.558975
     702           0     -1632.069946   1142.787354  -29375.00000      8.279616
     703           0     -1632.069946   1142.787354  -29625.00000      8.140121
     704           0     -1632.069946   1142.787354  -29875.00000      7.099556
     705           0     -1698.723877   1047.595581  -26125.00000     13.304937
     706           0     -1698.723877   1047.595581  -26375.00000     13.001428
     707           0     -1698.723877   1047.595581  -26625.00000     13.697220
     708           0     -1698.723877   1047.595581  -26875.00000     13.844593
     709           0     -1698.723877   1047.595581  -27125.00000     13.802973
     710           0     -1698.723877   1047.595581  -27375.00000     13.666598
     711           0     -1698.723877   1047.595581  -27625.00000     13.226245
     712           0     -1698.723877   1047.595581  -27875.00000     12.518005
     713           0     -1698.723877   1047.595581  -28125.00000     11.509155
     714           0     -1698.723877   1047.595581  -28375.00000     10.189938
     715           0     -1698.723877   1047.595581  -28625.00000      8.733685
     716           0     -1698.723877   1047.595581  -28875.00000      7.089465
     717           0     -1698.723877   1047.595581  -29125.00000      5.652084
     718           0     -1698.723877   1047.595581  -29375.00000      4.824747
     719           0     -1698.723877   1047.595581  -29625.00000      4.355987
     720           0     -1698.723877   1047.595581  -29875.00000      4.357305
     721           0     -1756.606689    947.339722  -26125.00000     22.077307
     722           0     -1756.606689    947.339722  -26375.00000     22.032286
     723           0     -1756.606689    947.339722  -26625.00000     21.689678
     724           0     -1756.606689    947.339722  -26875.00000     20.816221
     725           0     -1756.606689    947.339722  -27125.00000     19.692152
     726           0     -1756.606689    947.339722  -27375.00000     18.661520
     727           0     -1756.606689    947.339722  -27625.00000     17.137503
     728           0     -1756.606689    947.339722  -27875.00000     15.451407
     729           0     -1756.606689    947.339722  -28125.00000     13.432977
     730           0     -1756.606689    947.339722  -28375.00000     11.096281
     731           0     -1756.606689    947.339722  -28625.00000      8.568512
     732           0     -1756.606689    947.339722  -28875.00000      5.754508
     733           0     -1756.606689    947.339722  -29125.00000      3.100770
     734           0     -1756.606689    947.339722  -29375.00000      1.646423
     735           0     -1756.606689    947.339722  -29625.00000      3.906328
     736           0     -1756.606689    947.339722  -29875.00000      6.065482
     737           0     -1805.718140    842.019836  -26125.00000     32.236195
     738           0     -1805.718140    842.019836  -26375.00000     33.880596
     739           0     -1805.718140    842.019836  -26625.00000     31.613010
     740           0     -1805.718140    842.019836  -26875.00000     29.457298
     741           0     -1805.718140    842.019836  -27125.00000     27.347496
     742           0     -1805.718140    842.019836  -27375.00000     25.075884
     743           0     -1805.718140    842.019836  -27625.00000     22.436775
     744           0     -1805.718140    842.019836  -27875.00000     19.731503
     745           0     -1805.718140    842.019836  -28125.00000     16.556120
     746           0     -1805.718140    842.019836  -28375.00000     13.343037
     747           0     -1805.718140    842.019836  -28625.00000      9.627842
     748           0     -1805.718140    842.019836  -28875.00000      6.075446
     749           0     -1805.718140    842.019836  -29125.00000      2.568225
     750           0     -1805.718140    842.019836  -29375.00000      3.228390
     751           0     -1805.718140    842.019836  -29625.00000      7.495655
     752           0     -1805.718140    842.019836  -29875.00000     10.338305
     753           0     -1854.829468    736.699951  -26125.00000     46.309258
     754           0     -1854.829468    736.699951  -26375.00000     42.024441
     755           0     -1854.829468    736.699951  -26625.00000     41.254025
     756           0     -1854.829468    736.699951  -26875.00000     37.396145
     757           0     -1854.829468    736.699951  -27125.00000     34.688747
     758           0     -1854.829468    736.699951  -27375.00000     31.324492
     759           0     -1854.829468    736.699951  -27625.00000     28.187904
     760           0     -1854.829468    736.699951  -27875.00000     24.474859
     761           0     -1854.829468    736.699951  -28125.00000     20.790586
     762           0     -1854.829468    736.699951  -28375.00000     16.519232
     763           0     -1854.829468    736.699951  -28625.00000     12.468548
     764           0     -1854.829468    736.699951  -28875.00000      8.286871
     765           0     -1854.829468    736.699951  -29125.00000      6.374083
     766           0     -1854.829468    736.699951  -29375.00000      8.417489
     767           0     -1854.829468    736.699951  -29625.00000     12.262760
     768           0     -1854.829468    736.699951  -29875.00000     18.089912
     769           0     -1894.423584    627.916016  -26125.00000     57.046581
     770           0     -1894.423584    627.916016  -26375.00000     50.916725
     771           0     -1894.423584    627.916016  -26625.00000     48.964237
     772           0     -1894.423584    627.916016  -26875.00000     43.710464
     773           0     -1894.423584    627.916016  -27125.00000     39.661453
     774           0     -1894.423584    627.916016  -27375.00000     35.470104
     775           0     -1894.423584    627.916016  -27625.00000     31.487398
     776           0     -1894.423584    627.916016  -27875.00000     27.285975
     777           0     -1894.423584    627.916016  -28125.00000     23.310120
     778           0     -1894.423584    627.916016  -28375.00000     19.059494
     779           0     -1894.423584    627.916016  -28625.00000     15.317368
     780           0     -1894.423584    627.916016  -28875.00000     12.068039
     781           0     -1894.423584    627.916016  -29125.00000     10.849293
     782           0     -1894.423584    627.916016  -29375.00000     12.599839
     783           0     -1894.423584    627.916016  -29625.00000     15.163207
     784           0     -1894.423584    627.916016  -29875.00000     21.751440
     785           0     -1924.500366    515.667969  -26125.00000     62.639751
     786           0     -1924.500366    515.667969  -26375.00000     61.581421
     787           0     -1924.500366    515.667969  -26625.00000     54.537205
     788           0     -1924.500366    515.667969  -26875.00000     48.161720
     789           0     -1924.500366    515.667969  -27125.00000     42.074703
     790           0     -1924.500366    515.667969  -27375.00000     36.868248
     791           0     -1924.500366    515.667969  -27625.00000     31.526623
     792           0     -1924.500366    515.667969  -27875.00000     27.111383
     793           0     -1924.500366    515.667969  -28125.00000     22.781244
     794           0     -1924.500366    515.667969  -28375.00000     19.229523
     795           0     -1924.500366    515.667969  -28625.00000     16.027624
     796           0     -1924.500366    515.667969  -28875.00000     13.922367
     797           0     -1924.500366    515.667969  -29125.00000     13.023852
     798           0     -1924.500366    515.667969  -29375.00000     13.966650
     799           0     -1924.500366    515.667969  -29625.00000     16.464342
     800           0     -1924.500366    515.667969  -29875.00000     18.056410
     801           0     -1954.577148    403.420013  -26125.00000     76.838402
     802           0     -1954.577148    403.420013  -26375.00000     67.752739
     803           0     -1954.577148    403.420013  -26625.00000     62.307587
     804           0     -1954.577148    403.420013  -26875.00000     52.785164
     805           0     -1954.577148    403.420013  -27125.00000     46.389568
     806           0     -1954.577148    403.420013  -27375.00000     39.419022
     807           0     -1954.577148    403.420013  -27625.00000     33.994358
     808           0     -1954.577148    403.420013  -27875.00000     28.991066
     809           0     -1954.577148    403.420013  -28125.00000     25.102676
     810           0     -1954.577148    403.420013  -28375.00000     21.709738
     811           0     -1954.577148    403.420013  -28625.00000     19.063421
     812           0     -1954.577148    403.420013  -28875.00000     16.873558
     813           0     -1954.577148    403.420013  -29125.00000     15.644575
     814           0     -1954.577148    403.420013  -29375.00000     15.689604
     815           0     -1954.577148    403.420013  -29625.00000     16.873386
     816           0     -1954.577148    403.420013  -29875.00000     17.034502
     817           0     -1974.679565    289.413330  -26125.00000     83.414864
     818           0     -1974.679565    289.413330  -26375.00000     68.801498
     819           0     -1974.679565    289.413330  -26625.00000     64.364723
     820           0     -1974.679565    289.413330  -26875.00000     54.366611
     821           0     -1974.679565    289.413330  -27125.00000     47.129196
     822           0     -1974.679565    289.413330  -27375.00000     39.431866
     823           0     -1974.679565    289.413330  -27625.00000     33.329449
     824           0     -1974.679565    289.413330  -27875.00000     27.646118
     825           0     -1974.679565    289.413330  -28125.00000     23.433998
     826           0     -1974.679565    289.413330  -28375.00000     19.935751
     827           0     -1974.679565    289.413330  -28625.00000     17.554182
     828           0     -1974.679565    289.413330  -28875.00000     15.835159
     829           0     -1974.679565    289.413330  -29125.00000     14.933727
     830           0     -1974.679565    289.413330  -29375.00000     15.022315
     831           0     -1974.679565    289.413330  -29625.00000     15.279103
     832           0     -1974.679565    289.413330  -29875.00000     16.785280
     833           0     -1984.807617    173.647873  -26125.00000     71.362007
     834           0     -1984.807617    173.647873  -26375.00000     68.961937
     835           0     -1984.807617    173.647873  -26625.00000     60.846874
     836           0     -1984.807617    173.647873  -26875.00000     53.067490
     837           0     -1984.807617    173.647873  -27125.00000     45.795902
     838           0     -1984.807617    173.647873  -27375.00000     39.648861
     839           0     -1984.807617    173.647873  -27625.00000     34.115143
     840           0     -1984.807617    173.647873  -27875.00000     29.686283
     841           0     -1984.807617    173.647873  -28125.00000     25.875942
     842           0     -1984.807617    173.647873  -28375.00000     22.727558
     843           0     -1984.807617    173.647873  -28625.00000     19.926254
     844           0     -1984.807617    173.647873  -28875.00000     17.540510
     845           0     -1984.807617    173.647873  -29125.00000     15.646845
     846           0     -1984.807617    173.647873  -29375.00000     14.409986
     847           0     -1984.807617    173.647873  -29625.00000     14.864470
     848           0     -1984.807617    173.647873  -29875.00000     14.923921
     849           0     -1994.935791     57.882427  -26125.00000     65.874039
     850           0     -1994.935791     57.882427  -26375.00000     65.565346
     851           0     -1994.935791     57.882427  -26625.00000     59.843227
     852           0     -1994.935791     57.882427  -26875.00000     51.933723
     853           0     -1994.935791     57.882427  -27125.00000     47.128796
     854           0     -1994.935791     57.882427  -27375.00000     43.696644
     855           0     -1994.935791     57.882427  -27625.00000     41.384171
     856           0     -1994.935791     57.882427  -27875.00000     39.600361
     857           0     -1994.935791     57.882427  -28125.00000     37.400742
     858           0     -1994.935791     57.882427  -28375.00000     34.485634
     859           0     -1994.935791     57.882427  -28625.00000     30.597511
     860           0     -1994.935791     57.882427  -28875.00000     25.829714
     861           0     -1994.935791     57.882427  -29125.00000     20.904346
     862           0     -1994.935791     57.882427  -29375.00000     16.736395
     863           0     -1994.935791     57.882427  -29625.00000     15.785386
     864           0     -1994.935791     57.882427  -29875.00000     16.733223
     865           0     -1997.493652    -50.000221  -26125.00000     59.440895
     866           0     -1997.493652    -50.000221  -26375.00000     57.493938
     867           0     -1997.493652    -50.000221  -26625.00000     55.393074
     868           0     -1997.493652    -50.000221  -26875.00000     50.651207
     869           0     -1997.493652    -50.000221  -27125.00000     49.031307
     870           0     -1997.493652    -50.000221  -27375.00000     48.387890
     871           0     -1997.493652    -50.000221  -27625.00000     48.431953
     872           0     -1997.493652    -50.000221  -27875.00000     47.935513
     873           0     -1997.493652    -50.000221  -28125.00000     46.345303
     874           0     -1997.493652    -50.000221  -28375.00000     43.236462
     875           0     -1997.493652    -50.000221  -28625.00000     38.631317
     876           0     -1997.493652    -50.000221  -28875.00000     32.603703
     877           0     -1997.493652    -50.000221  -29125.00000     25.980026
     878           0     -1997.493652    -50.000221  -29375.00000     19.573780
     879           0     -1997.493652    -50.000221  -29625.00000     16.813810
     880           0     -1997.493652    -50.000221  -29875.00000     16.226168
     881           0     -1992.480957   -150.000076  -26125.00000     45.449883
     882           0     -1992.480957   -150.000076  -26375.00000     49.406982
     883           0     -1992.480957   -150.000076  -26625.00000     48.252987
     884           0     -1992.480957   -150.000076  -26875.00000     49.091995
     885           0     -1992.480957   -150.000076  -27125.00000     50.410248
     886           0     -1992.480957   -150.000076  -27375.00000     51.552406
     887           0     -1992.480957   -150.000076  -27625.00000     52.416996
     888           0     -1992.480957   -150.000076  -27875.00000     52.112648
     889           0     -1992.480957   -150.000076  -28125.00000     50.547272
     890           0     -1992.480957   -150.000076  -28375.00000     47.462120
     891           0     -1992.480957   -150.000076  -28625.00000     42.998432
     892           0     -1992.480957   -150.000076  -28875.00000     37.203339
     893           0     -1992.480957   -150.000076  -29125.00000     30.665787
     894           0     -1992.480957   -150.000076  -29375.00000     23.697872
     895           0     -1992.480957   -150.000076  -29625.00000     18.664488
     896           0     -1992.480957   -150.000076  -29875.00000     15.380159
     897           0     -1979.795044   -273.648315  -26125.00000     45.892269
     898           0     -1979.795044   -273.648315  -26375.00000     46.955185
     899           0     -1979.795044   -273.648315  -26625.00000     46.402882
     900           0     -1979.795044   -273.648315  -26875.00000     46.099583
     901           0     -1979.795044   -273.648315  -27125.00000     47.611439
     902           0     -1979.795044   -273.648315  -27375.00000     49.235268
     903           0     -1979.795044   -273.648315  -27625.00000     50.577450
     904           0     -1979.795044   -273.648315  -27875.00000     50.749638
     905           0     -1979.795044   -273.648315  -28125.00000     49.481194
     906           0     -1979.795044   -273.648315  -28375.00000     46.577843
     907           0     -1979.795044   -273.648315  -28625.00000     42.144539
     908           0     -1979.795044   -273.648315  -28875.00000     36.353844
     909           0     -1979.795044   -273.648315  -29125.00000     29.859829
     910           0     -1979.795044   -273.648315  -29375.00000     22.935417
     911           0     -1979.795044   -273.648315  -29625.00000     18.438648
     912           0     -1979.795044   -273.648315  -29875.00000     15.415620
     913           0     -1954.577026   -403.420563  -26125.00000     57.247841
     914           0     -1954.577026   -403.420563  -26375.00000     58.713665
     915           0     -1954.577026   -403.420563  -26625.00000     54.149769
     916           0     -1954.577026   -403.420563  -26875.00000     48.487507
     917           0     -1954.577026   -403.420563  -27125.00000     46.365135
     918           0     -1954.577026   -403.420563  -27375.00000     45.225727
     919           0     -1954.577026   -403.420563  -27625.00000     44.709942
     920           0     -1954.577026   -403.420563  -27875.00000     43.935242
     921           0     -1954.577026   -403.420563  -28125.00000     42.181980
     922           0     -1954.577026   -403.420563  -28375.00000     39.149250
     923           0     -1954.577026   -403.420563  -28625.00000     34.793167
     924           0     -1954.577026   -403.420563  -28875.00000     29.135761
     925           0     -1954.577026   -403.420563  -29125.00000     23.161070
     926           0     -1954.577026   -403.420563  -29375.00000     17.466194
     927           0     -1954.577026   -403.420563  -29625.00000     15.481361
     928           0     -1954.577026   -403.420563  -29875.00000     15.731285
     929           0     -1924.500244   -515.668518  -26125.00000     67.039619
     930           0     -1924.500244   -515.668518  -26375.00000     64.456177
     931           0     -1924.500244   -515.668518  -26625.00000     57.811859
     932           0     -1924.500244   -515.668518  -26875.00000     50.814358
     933           0     -1924.500244   -515.668518  -27125.00000     44.793777
     934           0     -1924.500244   -515.668518  -27375.00000     39.740990
     935           0     -1924.500244   -515.668518  -27625.00000     35.259125
     936           0     -1924.500244   -515.668518  -27875.00000     31.659590
     937           0     -1924.500244   -515.668518  -28125.00000     28.337347
     938           0     -1924.500244   -515.668518  -28375.00000     25.277370
     939           0     -1924.500244   -515.668518  -28625.00000     22.109005
     940           0     -1924.500244   -515.668518  -28875.00000     19.023407
     941           0     -1924.500244   -515.668518  -29125.00000     16.152771
     942           0     -1924.500244   -515.668518  -29375.00000     14.045195
     943           0     -1924.500244   -515.668518  -29625.00000     13.938519
     944           0     -1924.500244   -515.668518  -29875.00000     13.829072
     945           0     -1894.423340   -627.916504  -26125.00000     81.864067
     946           0     -1894.423340   -627.916504  -26375.00000     67.266380
     947           0     -1894.423340   -627.916504  -26625.00000     62.757389
     948           0     -1894.423340   -627.916504  -26875.00000     52.834518
     949           0     -1894.423340   -627.916504  -27125.00000     45.289585
     950           0     -1894.423340   -627.916504  -27375.00000     37.464302
     951           0     -1894.423340   -627.916504  -27625.00000     31.135101
     952           0     -1894.423340   -627.916504  -27875.00000     25.395584
     953           0     -1894.423340   -627.916504  -28125.00000     21.167383
     954           0     -1894.423340   -627.916504  -28375.00000     17.803951
     955           0     -1894.423340   -627.916504  -28625.00000     15.552309
     956           0     -1894.423340   -627.916504  -28875.00000     14.021285
     957           0     -1894.423340   -627.916504  -29125.00000     13.127003
     958           0     -1894.423340   -627.916504  -29375.00000     13.286087
     959           0     -1894.423340   -627.916504  -29625.00000     13.487610
     960           0     -1894.423340   -627.916504  -29875.00000     14.620765
     961           0     -1854.829224   -736.700439  -26125.00000     77.220230
     962           0     -1854.829224   -736.700439  -26375.00000     68.123672
     963           0     -1854.829224   -736.700439  -26625.00000     62.118813
     964           0     -1854.829224   -736.700439  -26875.00000     52.002857
     965           0     -1854.829224   -736.700439  -27125.00000     44.982105
     966           0     -1854.829224   -736.700439  -27375.00000     37.428375
     967           0     -1854.829224   -736.700439  -27625.00000     31.540323
     968           0     -1854.829224   -736.700439  -27875.00000     26.289446
     969           0     -1854.829224   -736.700439  -28125.00000     22.399054
     970           0     -1854.829224   -736.700439  -28375.00000     19.269768
     971           0     -1854.829224   -736.700439  -28625.00000     17.058924
     972           0     -1854.829224   -736.700439  -28875.00000     15.311692
     973           0     -1854.829224   -736.700439  -29125.00000     14.382269
     974           0     -1854.829224   -736.700439  -29375.00000     14.370437
     975           0     -1854.829224   -736.700439  -29625.00000     15.414314
     976           0     -1854.829224   -736.700439  -29875.00000     15.259199
     977           0     -1805.717773   -842.020264  -26125.00000     64.413322
     978           0     -1805.717773   -842.020264  -26375.00000     62.903316
     979           0     -1805.717773   -842.020264  -26625.00000     55.376431
     980           0     -1805.717773   -842.020264  -26875.00000     48.214584
     981           0     -1805.717773   -842.020264  -27125.00000     41.562492
     982           0     -1805.717773   -842.020264  -27375.00000     35.760494
     983           0     -1805.717773   -842.020264  -27625.00000     29.974407
     984           0     -1805.717773   -842.020264  -27875.00000     25.250881
     985           0     -1805.717773   -842.020264  -28125.00000     20.787933
     986           0     -1805.717773   -842.020264  -28375.00000     17.299906
     987           0     -1805.717773   -842.020264  -28625.00000     14.344104
     988           0     -1805.717773   -842.020264  -28875.00000     12.621638
     989           0     -1805.717773   -842.020264  -29125.00000     12.172511
     990           0     -1805.717773   -842.020264  -29375.00000     13.235587
     991           0     -1805.717773   -842.020264  -29625.00000     15.924727
     992           0     -1805.717773   -842.020264  -29875.00000     17.289516
     993           0     -1756.606201   -947.340210  -26125.00000     59.989792
     994           0     -1756.606201   -947.340210  -26375.00000     53.047749
     995           0     -1756.606201   -947.340210  -26625.00000     50.624237
     996           0     -1756.606201   -947.340210  -26875.00000     44.669842
     997           0     -1756.606201   -947.340210  -27125.00000     40.134300
     998           0     -1756.606201   -947.340210  -27375.00000     35.518307
     999           0     -1756.606201   -947.340210  -27625.00000     31.260487
    1000           0     -1756.606201   -947.340210  -27875.00000     26.891241
    1001           0     -1756.606201   -947.340210  -28125.00000     22.872728
    1002           0     -1756.606201   -947.340210  -28375.00000     18.675623
    1003           0     -1756.606201   -947.340210  -28625.00000     15.085569
    1004           0     -1756.606201   -947.340210  -28875.00000     12.155162
    1005           0     -1756.606201   -947.340210  -29125.00000     11.234595
    1006           0     -1756.606201   -947.340210  -29375.00000     13.287737
    1007           0     -1756.606201   -947.340210  -29625.00000     15.844583
    1008           0     -1756.606201   -947.340210  -29875.00000     22.038010
    1009           0     -1698.723511  -1047.595947  -26125.00000     49.701794
    1010           0     -1698.723511  -1047.595947  -26375.00000     44.587200
    1011           0     -1698.723511  -1047.595947  -26625.00000     43.400249
    1012           0     -1698.723511  -1047.595947  -26875.00000     38.856239
    1013           0     -1698.723511  -1047.595947  -27125.00000     35.693710
    1014           0     -1698.723511  -1047.595947  -27375.00000     31.909056
    1015           0     -1698.723511  -1047.595947  -27625.00000     28.476238
    1016           0     -1698.723511  -1047.595947  -27875.00000     24.531868
    1017           0     -1698.723511  -1047.595947  -28125.00000     20.716438
    1018           0     -1698.723511  -1047.595947  -28375.00000     16.368507
    1019           0     -1698.723511  -1047.595947  -28625.00000     12.364169
    1020           0     -1698.723511  -1047.595947  -28875.00000      8.486686
    1021           0     -1698.723511  -1047.595947  -29125.00000      7.278269
    1022           0     -1698.723511  -1047.595947  -29375.00000      9.883157
    1023           0     -1698.723511  -1047.595947  -29625.00000     13.819927
    1024           0     -1698.723511  -1047.595947  -29875.00000     19.441767
    1025           0     -1632.069580  -1142.787720  -26125.00000     35.240364
    1026           0     -1632.069580  -1142.787720  -26375.00000     36.635315
    1027           0     -1632.069580  -1142.787720  -26625.00000     33.913479
    1028           0     -1632.069580  -1142.787720  -26875.00000     31.159822
    1029           0     -1632.069580  -1142.787720  -27125.00000     28.598875
    1030           0     -1632.069580  -1142.787720  -27375.00000     25.860847
    1031           0     -1632.069580  -1142.787720  -27625.00000     22.803698
    1032           0     -1632.069580  -1142.787720  -27875.00000     19.722477
    1033           0     -1632.069580  -1142.787720  -28125.00000     16.187904
    1034           0     -1632.069580  -1142.787720  -28375.00000     12.685402
    1035           0     -1632.069580  -1142.787720  -28625.00000      8.666438
    1036           0     -1632.069580  -1142.787720  -28875.00000      4.958977
    1037           0     -1632.069580  -1142.787720  -29125.00000      2.142395
    1038           0     -1632.069580  -1142.787720  -29375.00000      4.683638
    1039           0     -1632.069580  -1142.787720  -29625.00000      9.501960
    1040           0     -1632.069580  -1142.787720  -29875.00000     12.294986
    1041           0     -1565.415527  -1237.979370  -26125.00000     24.581379
    1042           0     -1565.415527  -1237.979370  -26375.00000     24.541252
    1043           0     -1565.415527  -1237.979370  -26625.00000     23.885170
    1044           0     -1565.415527  -1237.979370  -26875.00000     22.599794
    1045           0     -1565.415527  -1237.979370  -27125.00000     21.105190
    1046           0     -1565.415527  -1237.979370  -27375.00000     19.706522
    1047           0     -1565.415527  -1237.979370  -27625.00000     17.805897
    1048           0     -1565.415527  -1237.979370  -27875.00000     15.737742
    1049           0     -1565.415527  -1237.979370  -28125.00000     13.360956
    1050           0     -1565.415527  -1237.979370  -28375.00000     10.626937
    1051           0     -1565.415527  -1237.979370  -28625.00000      7.775663
    1052           0     -1565.415527  -1237.979370  -28875.00000      4.557087
    1053           0     -1565.415527  -1237.979370  -29125.00000      1.881913
    1054           0     -1565.415527  -1237.979370  -29375.00000      2.942696
    1055           0     -1565.415527  -1237.979370  -29625.00000      5.939243
    1056           0     -1565.415527  -1237.979370  -29875.00000      8.802666
    1057           0     -1491.003052  -1326.660889  -26125.00000     15.791769
    1058           0     -1491.003052  -1326.660889  -26375.00000     15.058187
    1059           0     -1491.003052  -1326.660889  -26625.00000     15.628503
    1060           0     -1491.003052  -1326.660889  -26875.00000     15.423328
    1061           0     -1491.003052  -1326.660889  -27125.00000     15.048928
    1062           0     -1491.003052  -1326.660889  -27375.00000     14.612851
    1063           0     -1491.003052  -1326.660889  -27625.00000     13.845564
    1064           0     -1491.003052  -1326.660889  -27875.00000     12.822410
    1065           0     -1491.003052  -1326.660889  -28125.00000     11.501250
    1066           0     -1491.003052  -1326.660889  -28375.00000      9.860206
    1067           0     -1491.003052  -1326.660889  -28625.00000      8.125705
    1068           0     -1491.003052  -1326.660889  -28875.00000      6.236149
    1069           0     -1491.003052  -1326.660889  -29125.00000      4.752931
    1070           0     -1491.003052  -1326.660889  -29375.00000      4.449044
    1071           0     -1491.003052  -1326.660889  -29625.00000      4.740324
    1072           0     -1491.003052  -1326.660889  -29875.00000      6.269368
    1073           0     -1408.831787  -1408.832275  -26125.00000      7.411234
    1074           0     -1408.831787  -1408.832275  -26375.00000     10.146581
    1075           0     -1408.831787  -1408.832275  -26625.00000     10.710302
    1076           0     -1408.831787  -1408.832275  -26875.00000     11.221891
    1077           0     -1408.831787  -1408.832275  -27125.00000     11.892317
    1078           0     -1408.831787  -1408.832275  -27375.00000     12.084621
    1079           0     -1408.831787  -1408.832275  -27625.00000     12.208481
    1080           0     -1408.831787  -1408.832275  -27875.00000     12.006432
    1081           0     -1408.831787  -1408.832275  -28125.00000     11.595639
    1082           0     -1408.831787  -1408.832275  -28375.00000     11.013546
    1083           0     -1408.831787  -1408.832275  -28625.00000     10.216404
    1084           0     -1408.831787  -1408.832275  -28875.00000      9.516752
    1085           0     -1408.831787  -1408.832275  -29125.00000      8.684306
    1086           0     -1408.831787  -1408.832275  -29375.00000      8.211476
    1087           0     -1408.831787  -1408.832275  -29625.00000      8.206509
    1088           0     -1408.831787  -1408.832275  -29875.00000      6.974350
    1089           0     -1326.660645  -1491.003296  -26125.00000      2.208574
    1090           0     -1326.660645  -1491.003296  -26375.00000      2.507083
    1091           0     -1326.660645  -1491.003296  -26625.00000      3.310843
    1092           0     -1326.660645  -1491.003296  -26875.00000      3.814184
    1093           0     -1326.660645  -1491.003296  -27125.00000      4.693852
    1094           0     -1326.660645  -1491.003296  -27375.00000      5.242162
    1095           0     -1326.660645  -1491.003296  -27625.00000      5.723411
    1096           0     -1326.660645  -1491.003296  -27875.00000      5.998350
    1097           0     -1326.660645  -1491.003296  -28125.00000      6.231223
    1098           0     -1326.660645  -1491.003296  -28375.00000      6.331663
    1099           0     -1326.660645  -1491.003296  -28625.00000      6.575703
    1100           0     -1326.660645  -1491.003296  -28875.00000      6.758775
    1101           0     -1326.660645  -1491.003296  -29125.00000      7.285094
    1102           0     -1326.660645  -1491.003296  -29375.00000      7.776838
    1103           0     -1326.660645  -1491.003296  -29625.00000      8.287516
    1104           0     -1326.660645  -1491.003296  -29875.00000      9.738157
    1105           0     -1237.979126  -1565.416016  -26125.00000      7.177210
    1106           0     -1237.979126  -1565.416016  -26375.00000      6.566201
    1107           0     -1237.979126  -1565.416016  -26625.00000      6.437336
    1108           0     -1237.979126  -1565.416016  -26875.00000      5.784687
    1109           0     -1237.979126  -1565.416016  -27125.00000      5.798190
    1110           0     -1237.979126  -1565.416016  -27375.00000      5.566326
    1111           0     -1237.979126  -1565.416016  -27625.00000      5.471039
    1112           0     -1237.979126  -1565.416016  -27875.00000      5.373619
    1113           0     -1237.979126  -1565.416016  -28125.00000      5.288719
    1114           0     -1237.979126  -1565.416016  -28375.00000      5.422754
    1115           0     -1237.979126  -1565.416016  -28625.00000      5.657065
    1116           0     -1237.979126  -1565.416016  -28875.00000      6.297745
    1117           0     -1237.979126  -1565.416016  -29125.00000      6.956787
    1118           0     -1237.979126  -1565.416016  -29375.00000      8.326399
    1119           0     -1237.979126  -1565.416016  -29625.00000      9.017030
    1120           0     -1237.979126  -1565.416016  -29875.00000      9.516006
    1121           0     -1142.787354  -1632.069946  -26125.00000      9.190088
    1122           0     -1142.787354  -1632.069946  -26375.00000     10.219014
    1123           0     -1142.787354  -1632.069946  -26625.00000      9.065124
    1124           0     -1142.787354  -1632.069946  -26875.00000      9.148880
    1125           0     -1142.787354  -1632.069946  -27125.00000      8.564293
    1126           0     -1142.787354  -1632.069946  -27375.00000      8.409976
    1127           0     -1142.787354  -1632.069946  -27625.00000      7.987986
    1128           0     -1142.787354  -1632.069946  -27875.00000      7.745844
    1129           0     -1142.787354  -1632.069946  -28125.00000      7.496775
    1130           0     -1142.787354  -1632.069946  -28375.00000      7.413834
    1131           0     -1142.787354  -1632.069946  -28625.00000      7.504027
    1132           0     -1142.787354  -1632.069946  -28875.00000      7.912102
    1133           0     -1142.787354  -1632.069946  -29125.00000      8.355744
    1134           0     -1142.787354  -1632.069946  -29375.00000      9.651649
    1135           0     -1142.787354  -1632.069946  -29625.00000     10.323246
    1136           0     -1142.787354  -1632.069946  -29875.00000     10.035837
    1137           0     -1047.595581  -1698.723877  -26125.00000     12.523983
    1138           0     -1047.595581  -1698.723877  -26375.00000     11.387149
    1139           0     -1047.595581  -1698.723877  -26625.00000     10.954806
    1140           0     -1047.595581  -1698.723877  -26875.00000      9.395633
    1141           0     -1047.595581  -1698.723877  -27125.00000      8.621995
    1142           0     -1047.595581  -1698.723877  -27375.00000      7.252513
    1143           0     -1047.595581  -1698.723877  -27625.00000      6.250976
    1144           0     -1047.595581  -1698.723877  -27875.00000      4.947546
    1145           0     -1047.595581  -1698.723877  -28125.00000      3.929929
    1146           0     -1047.595581  -1698.723877  -28375.00000      3.010910
    1147           0     -1047.595581  -1698.723877  -28625.00000      2.894268
    1148           0     -1047.595581  -1698.723877  -28875.00000      3.453062
    1149           0     -1047.595581  -1698.723877  -29125.00000      4.838973
    1150           0     -1047.595581  -1698.723877  -29375.00000      6.325120
    1151           0     -1047.595581  -1698.723877  -29625.00000      7.395515
    1152           0     -1047.595581  -1698.723877  -29875.00000     10.747981
    1153           0      -947.339722  -1756.606689  -26125.00000     12.735572
    1154           0      -947.339722  -1756.606689  -26375.00000     11.545249
    1155           0      -947.339722  -1756.606689  -26625.00000     11.169084
    1156           0      -947.339722  -1756.606689  -26875.00000      9.635325
    1157           0      -947.339722  -1756.606689  -27125.00000      8.873456
    1158           0      -947.339722  -1756.606689  -27375.00000      7.496867
    1159           0      -947.339722  -1756.606689  -27625.00000      6.447140
    1160           0      -947.339722  -1756.606689  -27875.00000      5.094583
    1161           0      -947.339722  -1756.606689  -28125.00000      3.861533
    1162           0      -947.339722  -1756.606689  -28375.00000      2.645946
    1163           0      -947.339722  -1756.606689  -28625.00000      1.767491
    1164           0      -947.339722  -1756.606689  -28875.00000      2.208591
    1165           0      -947.339722  -1756.606689  -29125.00000      3.286168
    1166           0      -947.339722  -1756.606689  -29375.00000      5.096911
    1167           0      -947.339722  -1756.606689  -29625.00000      6.085601
    1168           0      -947.339722  -1756.606689  -29875.00000      8.324822
    1169           0      -842.019836  -1805.718140  -26125.00000      9.656401
    1170           0      -842.019836  -1805.718140  -26375.00000     10.602679
    1171           0      -842.019836  -1805.718140  -26625.00000      8.884902
    1172           0      -842.019836  -1805.718140  -26875.00000      8.582363
    1173           0      -842.019836  -1805.718140  -27125.00000      7.473993
    1174           0      -842.019836  -1805.718140  -27375.00000      6.882562
    1175           0      -842.019836  -1805.718140  -27625.00000      5.968909
    1176           0      -842.019836  -1805.718140  -27875.00000      5.331493
    1177           0      -842.019836  -1805.718140  -28125.00000      4.712917
    1178           0      -842.019836  -1805.718140  -28375.00000      4.356977
    1179           0      -842.019836  -1805.718140  -28625.00000      4.316711
    1180           0      -842.019836  -1805.718140  -28875.00000      4.677304
    1181           0      -842.019836  -1805.718140  -29125.00000      5.129419
    1182           0      -842.019836  -1805.718140  -29375.00000      6.428170
    1183           0      -842.019836  -1805.718140  -29625.00000      7.081171
    1184           0      -842.019836  -1805.718140  -29875.00000      6.234988
    1185           0      -736.699951  -1854.829468  -26125.00000      8.206949
    1186           0      -736.699951  -1854.829468  -26375.00000      8.174500
    1187           0      -736.699951  -1854.829468  -26625.00000      7.630551
    1188           0      -736.699951  -1854.829468  -26875.00000      6.796969
    1189           0      -736.699951  -1854.829468  -27125.00000      6.281509
    1190           0      -736.699951  -1854.829468  -27375.00000      5.549996
    1191           0      -736.699951  -1854.829468  -27625.00000      4.901391
    1192           0      -736.699951  -1854.829468  -27875.00000      4.178695
    1193           0      -736.699951  -1854.829468  -28125.00000      3.438265
    1194           0      -736.699951  -1854.829468  -28375.00000      2.756414
    1195           0      -736.699951  -1854.829468  -28625.00000      2.028202
    1196           0      -736.699951  -1854.829468  -28875.00000      1.627008
    1197           0      -736.699951  -1854.829468  -29125.00000      1.632128
    1198           0      -736.699951  -1854.829468  -29375.00000      2.129317
    1199           0      -736.699951  -1854.829468  -29625.00000      2.592716
    1200           0      -736.699951  -1854.829468  -29875.00000      4.294031
    1201           0      -627.916016  -1894.423584  -26125.00000      5.517948
    1202           0      -627.916016  -1894.423584  -26375.00000      5.599422
    1203           0      -627.916016  -1894.423584  -26625.00000      5.559769
    1204           0      -627.916016  -1894.423584  -26875.00000      4.888039
    1205           0      -627.916016  -1894.423584  -27125.00000      4.816031
    1206           0      -627.916016  -1894.423584  -27375.00000      4.255113
    1207           0      -627.916016  -1894.423584  -27625.00000      4.008790
    1208           0      -627.916016  -1894.423584  -27875.00000      3.511609
    1209           0      -627.916016  -1894.423584  -28125.00000      3.145105
    1210           0      -627.916016  -1894.423584  -28375.00000      2.662507
    1211           0      -627.916016  -1894.423584  -28625.00000      2.263787
    1212           0      -627.916016  -1894.423584  -28875.00000      1.809381
    1213           0      -627.916016  -1894.423584  -29125.00000      1.603099
    1214           0      -627.916016  -1894.423584  -29375.00000      1.439148
    1215           0      -627.916016  -1894.423584  -29625.00000      1.352313
    1216           0      -627.916016  -1894.423584  -29875.00000      2.638093
    1217           0      -515.667969  -1924.500366  -26125.00000      4.056338
    1218           0      -515.667969  -1924.500366  -26375.00000      5.963351
    1219           0      -515.667969  -1924.500366  -26625.00000      5.021347
    1220           0      -515.667969  -1924.500366  -26875.00000      4.830740
    1221           0      -515.667969  -1924.500366  -27125.00000      4.588413
    1222           0      -515.667969  -1924.500366  -27375.00000      4.433567
    1223           0      -515.667969  -1924.500366  -27625.00000      4.329007
    1224           0      -515.667969  -1924.500366  -27875.00000      4.286711
    1225           0      -515.667969  -1924.500366  -28125.00000      4.291772
    1226           0      -515.667969  -1924.500366  -28375.00000      4.333995
    1227           0      -515.667969  -1924.500366  -28625.00000      4.417333
    1228           0      -515.667969  -1924.500366  -28875.00000      4.525713
    1229           0      -515.667969  -1924.500366  -29125.00000      4.612215
    1230           0      -515.667969  -1924.500366  -29375.00000      4.775474
    1231           0      -515.667969  -1924.500366  -29625.00000      5.255674
    1232           0      -515.667969  -1924.500366  -29875.00000      2.470803
    1233           0      -403.420013  -1954.577148  -26125.00000      4.808650
    1234           0      -403.420013  -1954.577148  -26375.00000      3.898748
    1235           0      -403.420013  -1954.577148  -26625.00000      3.627753
    1236           0      -403.420013  -1954.577148  -26875.00000      3.436355
    1237           0      -403.420013  -1954.577148  -27125.00000      3.022607
    1238           0      -403.420013  -1954.577148  -27375.00000      2.954900
    1239           0      -403.420013  -1954.577148  -27625.00000      2.699361
    1240           0      -403.420013  -1954.577148  -27875.00000      2.652050
    1241           0      -403.420013  -1954.577148  -28125.00000      2.496606
    1242           0      -403.420013  -1954.577148  -28375.00000      2.517647
    1243           0      -403.420013  -1954.577148  -28625.00000      2.385841
    1244           0      -403.420013  -1954.577148  -28875.00000      2.544042
    1245           0      -403.420013  -1954.577148  -29125.00000      2.340351
    1246           0      -403.420013  -1954.577148  -29375.00000      2.632249
    1247           0      -403.420013  -1954.577148  -29625.00000      2.633303
    1248           0      -403.420013  -1954.577148  -29875.00000      1.976234
    1249           0      -289.413330  -1974.679565  -26125.00000      5.664111
    1250           0      -289.413330  -1974.679565  -26375.00000      5.285063
    1251           0      -289.413330  -1974.679565  -26625.00000      4.941825
    1252           0      -289.413330  -1974.679565  -26875.00000      4.168536
    1253           0      -289.413330  -1974.679565  -27125.00000      3.613644
    1254           0      -289.413330  -1974.679565  -27375.00000      3.098281
    1255           0      -289.413330  -1974.679565  -27625.00000      2.689762
    1256           0      -289.413330  -1974.679565  -27875.00000      2.310241
    1257           0      -289.413330  -1974.679565  -28125.00000      2.169761
    1258           0      -289.413330  -1974.679565  -28375.00000      2.053517
    1259           0      -289.413330  -1974.679565  -28625.00000      2.184803
    1260           0      -289.413330  -1974.679565  -28875.00000      2.383169
    1261           0      -289.413330  -1974.679565  -29125.00000      2.610604
    1262           0      -289.413330  -1974.679565  -29375.00000      3.012020
    1263           0      -289.413330  -1974.679565  -29625.00000      3.446178
    1264           0      -289.413330  -1974.679565  -29875.00000      3.345726
    1265           0      -173.647873  -1984.807617  -26125.00000      7.945629
    1266           0      -173.647873  -1984.807617  -26375.00000      8.858144
    1267           0      -173.647873  -1984.807617  -26625.00000      8.303603
    1268           0      -173.647873  -1984.807617  -26875.00000      6.956573
    1269           0      -173.647873  -1984.807617  -27125.00000      6.493709
    1270           0      -173.647873  -1984.807617  -27375.00000      5.741416
    1271           0      -173.647873  -1984.807617  -27625.00000      5.282469
    1272           0      -173.647873  -1984.807617  -27875.00000      4.889763
    1273           0      -173.647873  -1984.807617  -28125.00000      4.640076
    1274           0      -173.647873  -1984.807617  -28375.00000      4.544045
    1275           0      -173.647873  -1984.807617  -28625.00000      4.560277
    1276           0      -173.647873  -1984.807617  -28875.00000      4.650459
    1277           0      -173.647873  -1984.807617  -29125.00000      4.943003
    1278           0      -173.647873  -1984.807617  -29375.00000      4.952384
    1279           0      -173.647873  -1984.807617  -29625.00000      6.054462
    1280           0      -173.647873  -1984.807617  -29875.00000      4.023511
    1281           0       -57.882427  -1994.935791  -26125.00000      9.265249
    1282           0       -57.882427  -1994.935791  -26375.00000      7.551172
    1283           0       -57.882427  -1994.935791  -26625.00000      7.048701
    1284           0       -57.882427  -1994.935791  -26875.00000      5.895706
    1285           0       -57.882427  -1994.935791  -27125.00000      4.862908
    1286           0       -57.882427  -1994.935791  -27375.00000      3.984056
    1287           0       -57.882427  -1994.935791  -27625.00000      3.101074
    1288           0       -57.882427  -1994.935791  -27875.00000      2.360925
    1289           0       -57.882427  -1994.935791  -28125.00000      1.833104
    1290           0       -57.882427  -1994.935791  -28375.00000      1.644458
    1291           0       -57.882427  -1994.935791  -28625.00000      1.824383
    1292           0       -57.882427  -1994.935791  -28875.00000      2.436050
    1293           0       -57.882427  -1994.935791  -29125.00000      2.842677
    1294           0       -57.882427  -1994.935791  -29375.00000      3.722604
    1295           0       -57.882427  -1994.935791  -29625.00000      4.283551
    1296           0       -57.882427  -1994.935791  -29875.00000      4.517073
    1297           0        57.883011  -1994.935791  -26125.00000      9.292786
    1298           0        57.883011  -1994.935791  -26375.00000      7.530985
    1299           0        57.883011  -1994.935791  -26625.00000      7.033343
    1300           0        57.883011  -1994.935791  -26875.00000      5.895187
    1301           0        57.883011  -1994.935791  -27125.00000      4.858165
    1302           0        57.883011  -1994.935791  -27375.00000      3.995255
    1303           0        57.883011  -1994.935791  -27625.00000      3.113595
    1304           0        57.883011  -1994.935791  -27875.00000      2.397009
    1305           0        57.883011  -1994.935791  -28125.00000      1.871719
    1306           0        57.883011  -1994.935791  -28375.00000      1.711030
    1307           0        57.883011  -1994.935791  -28625.00000      1.866757
    1308           0        57.883011  -1994.935791  -28875.00000      2.486281
    1309           0        57.883011  -1994.935791  -29125.00000      2.862156
    1310           0        57.883011  -1994.935791  -29375.00000      3.754770
    1311           0        57.883011  -1994.935791  -29625.00000      4.284626
    1312           0        57.883011  -1994.935791  -29875.00000      4.491450
    1313           0       173.648453  -1984.807617  -26125.00000      7.893723
    1314           0       173.648453  -1984.807617  -26375.00000      8.818438
    1315           0       173.648453  -1984.807617  -26625.00000      8.269444
    1316           0       173.648453  -1984.807617  -26875.00000      6.940188
    1317           0       173.648453  -1984.807617  -27125.00000      6.486558
    1318           0       173.648453  -1984.807617  -27375.00000      5.749299
    1319           0       173.648453  -1984.807617  -27625.00000      5.303133
    1320           0       173.648453  -1984.807617  -27875.00000      4.922982
    1321           0       173.648453  -1984.807617  -28125.00000      4.684155
    1322           0       173.648453  -1984.807617  -28375.00000      4.594339
    1323           0       173.648453  -1984.807617  -28625.00000      4.614446
    1324           0       173.648453  -1984.807617  -28875.00000      4.703329
    1325           0       173.648453  -1984.807617  -29125.00000      4.991575
    1326           0       173.648453  -1984.807617  -29375.00000      4.995940
    1327           0       173.648453  -1984.807617  -29625.00000      6.085814
    1328           0       173.648453  -1984.807617  -29875.00000      4.056101
    1329           0       289.413879  -1974.679443  -26125.00000      5.546951
    1330           0       289.413879  -1974.679443  -26375.00000      5.257469
    1331           0       289.413879  -1974.679443  -26625.00000      4.931598
    1332           0       289.413879  -1974.679443  -26875.00000      4.170347
    1333           0       289.413879  -1974.679443  -27125.00000      3.662184
    1334           0       289.413879  -1974.679443  -27375.00000      3.165664
    1335           0       289.413879  -1974.679443  -27625.00000      2.802986
    1336           0       289.413879  -1974.679443  -27875.00000      2.450044
    1337           0       289.413879  -1974.679443  -28125.00000      2.342571
    1338           0       289.413879  -1974.679443  -28375.00000      2.231837
    1339           0       289.413879  -1974.679443  -28625.00000      2.366128
    1340           0       289.413879  -1974.679443  -28875.00000      2.530110
    1341           0       289.413879  -1974.679443  -29125.00000      2.753647
    1342           0       289.413879  -1974.679443  -29375.00000      3.102699
    1343           0       289.413879  -1974.679443  -29625.00000      3.534102
    1344           0       289.413879  -1974.679443  -29875.00000      3.444408
    1345           0       403.420563  -1954.577026  -26125.00000      4.874896
    1346           0       403.420563  -1954.577026  -26375.00000      3.988108
    1347           0       403.420563  -1954.577026  -26625.00000      3.703719
    1348           0       403.420563  -1954.577026  -26875.00000      3.552310
    1349           0       403.420563  -1954.577026  -27125.00000      3.158015
    1350           0       403.420563  -1954.577026  -27375.00000      3.114025
    1351           0       403.420563  -1954.577026  -27625.00000      2.870878
    1352           0       403.420563  -1954.577026  -27875.00000      2.839568
    1353           0       403.420563  -1954.577026  -28125.00000      2.683785
    1354           0       403.420563  -1954.577026  -28375.00000      2.710921
    1355           0       403.420563  -1954.577026  -28625.00000      2.565696
    1356           0       403.420563  -1954.577026  -28875.00000      2.718946
    1357           0       403.420563  -1954.577026  -29125.00000      2.488892
    1358           0       403.420563  -1954.577026  -29375.00000      2.773461
    1359           0       403.420563  -1954.577026  -29625.00000      2.733094
    1360           0       403.420563  -1954.577026  -29875.00000      1.954776
    1361           0       515.668518  -1924.500244  -26125.00000      4.271376
    1362           0       515.668518  -1924.500244  -26375.00000      6.123894
    1363           0       515.668518  -1924.500244  -26625.00000      5.161595
    1364           0       515.668518  -1924.500244  -26875.00000      4.997711
    1365           0       515.668518  -1924.500244  -27125.00000      4.735253
    1366           0       515.668518  -1924.500244  -27375.00000      4.582644
    1367           0       515.668518  -1924.500244  -27625.00000      4.464494
    1368           0       515.668518  -1924.500244  -27875.00000      4.412892
    1369           0       515.668518  -1924.500244  -28125.00000      4.405575
    1370           0       515.668518  -1924.500244  -28375.00000      4.434400
    1371           0       515.668518  -1924.500244  -28625.00000      4.507326
    1372           0       515.668518  -1924.500244  -28875.00000      4.603128
    1373           0       515.668518  -1924.500244  -29125.00000      4.683164
    1374           0       515.668518  -1924.500244  -29375.00000      4.837572
    1375           0       515.668518  -1924.500244  -29625.00000      5.312445
    1376           0       515.668518  -1924.500244  -29875.00000      2.562629
    1377           0       627.916504  -1894.423340  -26125.00000      5.919327
    1378           0       627.916504  -1894.423340  -26375.00000      6.012176
    1379           0       627.916504  -1894.423340  -26625.00000      5.953642
    1380           0       627.916504  -1894.423340  -26875.00000      5.240090
    1381           0       627.916504  -1894.423340  -27125.00000      5.141399
    1382           0       627.916504  -1894.423340  -27375.00000      4.543958
    1383           0       627.916504  -1894.423340  -27625.00000      4.269795
    1384           0       627.916504  -1894.423340  -27875.00000      3.738969
    1385           0       627.916504  -1894.423340  -28125.00000      3.348505
    1386           0       627.916504  -1894.423340  -28375.00000      2.836682
    1387           0       627.916504  -1894.423340  -28625.00000      2.422776
    1388           0       627.916504  -1894.423340  -28875.00000      1.942941
    1389           0       627.916504  -1894.423340  -29125.00000      1.738701
    1390           0       627.916504  -1894.423340  -29375.00000      1.543270
    1391           0       627.916504  -1894.423340  -29625.00000      1.480945
    1392           0       627.916504  -1894.423340  -29875.00000      2.812353
    1393           0       736.700439  -1854.829224  -26125.00000      8.656726
    1394           0       736.700439  -1854.829224  -26375.00000      8.643402
    1395           0       736.700439  -1854.829224  -26625.00000      8.051952
    1396           0       736.700439  -1854.829224  -26875.00000      7.181185
    1397           0       736.700439  -1854.829224  -27125.00000      6.627088
    1398           0       736.700439  -1854.829224  -27375.00000      5.858474
    1399           0       736.700439  -1854.829224  -27625.00000      5.168766
    1400           0       736.700439  -1854.829224  -27875.00000      4.409535
    1401           0       736.700439  -1854.829224  -28125.00000      3.626757
    1402           0       736.700439  -1854.829224  -28375.00000      2.909085
    1403           0       736.700439  -1854.829224  -28625.00000      2.128820
    1404           0       736.700439  -1854.829224  -28875.00000      1.692124
    1405           0       736.700439  -1854.829224  -29125.00000      1.623515
    1406           0       736.700439  -1854.829224  -29375.00000      2.142412
    1407           0       736.700439  -1854.829224  -29625.00000      2.614308
    1408           0       736.700439  -1854.829224  -29875.00000      4.266502
    1409           0       842.020264  -1805.717773  -26125.00000     10.149889
    1410           0       842.020264  -1805.717773  -26375.00000     11.043373
    1411           0       842.020264  -1805.717773  -26625.00000      9.286571
    1412           0       842.020264  -1805.717773  -26875.00000      8.941215
    1413           0       842.020264  -1805.717773  -27125.00000      7.784604
    1414           0       842.020264  -1805.717773  -27375.00000      7.148594
    1415           0       842.020264  -1805.717773  -27625.00000      6.180634
    1416           0       842.020264  -1805.717773  -27875.00000      5.489186
    1417           0       842.020264  -1805.717773  -28125.00000      4.807776
    1418           0       842.020264  -1805.717773  -28375.00000      4.389788
    1419           0       842.020264  -1805.717773  -28625.00000      4.298266
    1420           0       842.020264  -1805.717773  -28875.00000      4.628460
    1421           0       842.020264  -1805.717773  -29125.00000      5.077868
    1422           0       842.020264  -1805.717773  -29375.00000      6.393608
    1423           0       842.020264  -1805.717773  -29625.00000      7.071877
    1424           0       842.020264  -1805.717773  -29875.00000      6.242775
    1425           0       947.340210  -1756.606201  -26125.00000     13.220499
    1426           0       947.340210  -1756.606201  -26375.00000     12.071813
    1427           0       947.340210  -1756.606201  -26625.00000     11.655793
    1428           0       947.340210  -1756.606201  -26875.00000     10.067133
    1429           0       947.340210  -1756.606201  -27125.00000      9.263032
    1430           0       947.340210  -1756.606201  -27375.00000      7.835144
    1431           0       947.340210  -1756.606201  -27625.00000      6.737991
    1432           0       947.340210  -1756.606201  -27875.00000      5.328102
    1433           0       947.340210  -1756.606201  -28125.00000      4.037004
    1434           0       947.340210  -1756.606201  -28375.00000      2.729121
    1435           0       947.340210  -1756.606201  -28625.00000      1.712785
    1436           0       947.340210  -1756.606201  -28875.00000      2.053095
    1437           0       947.340210  -1756.606201  -29125.00000      3.163266
    1438           0       947.340210  -1756.606201  -29375.00000      5.020070
    1439           0       947.340210  -1756.606201  -29625.00000      6.045698
    1440           0       947.340210  -1756.606201  -29875.00000      8.374098
    1441           0      1047.595947  -1698.723511  -26125.00000     13.041425
    1442           0      1047.595947  -1698.723511  -26375.00000     11.947238
    1443           0      1047.595947  -1698.723511  -26625.00000     11.458466
    1444           0      1047.595947  -1698.723511  -26875.00000      9.847093
    1445           0      1047.595947  -1698.723511  -27125.00000      9.022873
    1446           0      1047.595947  -1698.723511  -27375.00000      7.600782
    1447           0      1047.595947  -1698.723511  -27625.00000      6.539283
    1448           0      1047.595947  -1698.723511  -27875.00000      5.171640
    1449           0      1047.595947  -1698.723511  -28125.00000      4.069121
    1450           0      1047.595947  -1698.723511  -28375.00000      3.040713
    1451           0      1047.595947  -1698.723511  -28625.00000      2.800478
    1452           0      1047.595947  -1698.723511  -28875.00000      3.316398
    1453           0      1047.595947  -1698.723511  -29125.00000      4.723288
    1454           0      1047.595947  -1698.723511  -29375.00000      6.255100
    1455           0      1047.595947  -1698.723511  -29625.00000      7.360661
    1456           0      1047.595947  -1698.723511  -29875.00000     10.763498
    1457           0      1142.787720  -1632.069580  -26125.00000      9.747916
    1458           0      1142.787720  -1632.069580  -26375.00000     10.687105
    1459           0      1142.787720  -1632.069580  -26625.00000      9.463309
    1460           0      1142.787720  -1632.069580  -26875.00000      9.469777
    1461           0      1142.787720  -1632.069580  -27125.00000      8.800469
    1462           0      1142.787720  -1632.069580  -27375.00000      8.579638
    1463           0      1142.787720  -1632.069580  -27625.00000      8.080573
    1464           0      1142.787720  -1632.069580  -27875.00000      7.778072
    1465           0      1142.787720  -1632.069580  -28125.00000      7.470673
    1466           0      1142.787720  -1632.069580  -28375.00000      7.346093
    1467           0      1142.787720  -1632.069580  -28625.00000      7.412817
    1468           0      1142.787720  -1632.069580  -28875.00000      7.817603
    1469           0      1142.787720  -1632.069580  -29125.00000      8.278386
    1470           0      1142.787720  -1632.069580  -29375.00000      9.610531
    1471           0      1142.787720  -1632.069580  -29625.00000     10.317996
    1472           0      1142.787720  -1632.069580  -29875.00000     10.065570
    1473           0      1237.979370  -1565.415527  -26125.00000      7.693263
    1474           0      1237.979370  -1565.415527  -26375.00000      7.136578
    1475           0      1237.979370  -1565.415527  -26625.00000      6.928926
    1476           0      1237.979370  -1565.415527  -26875.00000      6.169705
    1477           0      1237.979370  -1565.415527  -27125.00000      6.097159
    1478           0      1237.979370  -1565.415527  -27375.00000      5.758996
    1479           0      1237.979370  -1565.415527  -27625.00000      5.584411
    1480           0      1237.979370  -1565.415527  -27875.00000      5.404334
    1481           0      1237.979370  -1565.415527  -28125.00000      5.261767
    1482           0      1237.979370  -1565.415527  -28375.00000      5.352142
    1483           0      1237.979370  -1565.415527  -28625.00000      5.569174
    1484           0      1237.979370  -1565.415527  -28875.00000      6.218019
    1485           0      1237.979370  -1565.415527  -29125.00000      6.902006
    1486           0      1237.979370  -1565.415527  -29375.00000      8.311141
    1487           0      1237.979370  -1565.415527  -29625.00000      9.040919
    1488           0      1237.979370  -1565.415527  -29875.00000      9.606062
    1489           0      1326.660889  -1491.003052  -26125.00000      2.719814
    1490           0      1326.660889  -1491.003052  -26375.00000      2.797386
    1491           0      1326.660889  -1491.003052  -26625.00000      3.505358
    1492           0      1326.660889  -1491.003052  -26875.00000      3.831263
    1493           0      1326.660889  -1491.003052  -27125.00000      4.676219
    1494           0      1326.660889  -1491.003052  -27375.00000      5.160635
    1495           0      1326.660889  -1491.003052  -27625.00000      5.630967
    1496           0      1326.660889  -1491.003052  -27875.00000      5.890857
    1497           0      1326.660889  -1491.003052  -28125.00000      6.130539
    1498           0      1326.660889  -1491.003052  -28375.00000      6.242121
    1499           0      1326.660889  -1491.003052  -28625.00000      6.509409
    1500           0      1326.660889  -1491.003052  -28875.00000      6.720404
    1501           0      1326.660889  -1491.003052  -29125.00000      7.280172
    1502           0      1326.660889  -1491.003052  -29375.00000      7.809158
    1503           0      1326.660889  -1491.003052  -29625.00000      8.343177
    1504           0      1326.660889  -1491.003052  -29875.00000      9.869007
    1505           0      1408.832275  -1408.831787  -26125.00000      6.878005
    1506           0      1408.832275  -1408.831787  -26375.00000      9.693073
    1507           0      1408.832275  -1408.831787  -26625.00000     10.326717
    1508           0      1408.832275  -1408.831787  -26875.00000     10.879342
    1509           0      1408.832275  -1408.831787  -27125.00000     11.584753
    1510           0      1408.832275  -1408.831787  -27375.00000     11.820981
    1511           0      1408.832275  -1408.831787  -27625.00000     11.985290
    1512           0      1408.832275  -1408.831787  -27875.00000     11.828082
    1513           0      1408.832275  -1408.831787  -28125.00000     11.462404
    1514           0      1408.832275  -1408.831787  -28375.00000     10.924829
    1515           0      1408.832275  -1408.831787  -28625.00000     10.173589
    1516           0      1408.832275  -1408.831787  -28875.00000      9.515797
    1517           0      1408.832275  -1408.831787  -29125.00000      8.723587
    1518           0      1408.832275  -1408.831787  -29375.00000      8.286783
    1519           0      1408.832275  -1408.831787  -29625.00000      8.293108
    1520           0      1408.832275  -1408.831787  -29875.00000      7.070956
    1521           0      1491.003296  -1326.660645  -26125.00000     15.363269
    1522           0      1491.003296  -1326.660645  -26375.00000     14.511331
    1523           0      1491.003296  -1326.660645  -26625.00000     15.132952
    1524           0      1491.003296  -1326.660645  -26875.00000     14.969302
    1525           0      1491.003296  -1326.660645  -27125.00000     14.632527
    1526           0      1491.003296  -1326.660645  -27375.00000     14.245729
    1527           0      1491.003296  -1326.660645  -27625.00000     13.533469
    1528           0      1491.003296  -1326.660645  -27875.00000     12.572618
    1529           0      1491.003296  -1326.660645  -28125.00000     11.314520
    1530           0      1491.003296  -1326.660645  -28375.00000      9.742083
    1531           0      1491.003296  -1326.660645  -28625.00000      8.074466
    1532           0      1491.003296  -1326.660645  -28875.00000      6.264558
    1533           0      1491.003296  -1326.660645  -29125.00000      4.850759
    1534           0      1491.003296  -1326.660645  -29375.00000      4.578888
    1535           0      1491.003296  -1326.660645  -29625.00000      4.826887
    1536           0      1491.003296  -1326.660645  -29875.00000      6.204907
    1537           0      1565.416016  -1237.979126  -26125.00000     24.117170
    1538           0      1565.416016  -1237.979126  -26375.00000     24.005804
    1539           0      1565.416016  -1237.979126  -26625.00000     23.395132
    1540           0      1565.416016  -1237.979126  -26875.00000     22.147163
    1541           0      1565.416016  -1237.979126  -27125.00000     20.691545
    1542           0      1565.416016  -1237.979126  -27375.00000     19.341881
    1543           0      1565.416016  -1237.979126  -27625.00000     17.493309
    1544           0      1565.416016  -1237.979126  -27875.00000     15.481501
    1545           0      1565.416016  -1237.979126  -28125.00000     13.161446
    1546           0      1565.416016  -1237.979126  -28375.00000     10.485429
    1547           0      1565.416016  -1237.979126  -28625.00000      7.694666
    1548           0      1565.416016  -1237.979126  -28875.00000      4.546039
    1549           0      1565.416016  -1237.979126  -29125.00000      1.993243
    1550           0      1565.416016  -1237.979126  -29375.00000      2.978523
    1551           0      1565.416016  -1237.979126  -29625.00000      5.910948
    1552           0      1565.416016  -1237.979126  -29875.00000      8.645444
    1553           0      1632.069946  -1142.787354  -26125.00000     34.687740
    1554           0      1632.069946  -1142.787354  -26375.00000     36.104328
    1555           0      1632.069946  -1142.787354  -26625.00000     33.452282
    1556           0      1632.069946  -1142.787354  -26875.00000     30.735790
    1557           0      1632.069946  -1142.787354  -27125.00000     28.229307
    1558           0      1632.069946  -1142.787354  -27375.00000     25.547640
    1559           0      1632.069946  -1142.787354  -27625.00000     22.543417
    1560           0      1632.069946  -1142.787354  -27875.00000     19.510933
    1561           0      1632.069946  -1142.787354  -28125.00000     16.019709
    1562           0      1632.069946  -1142.787354  -28375.00000     12.554666
    1563           0      1632.069946  -1142.787354  -28625.00000      8.565364
    1564           0      1632.069946  -1142.787354  -28875.00000      4.869434
    1565           0      1632.069946  -1142.787354  -29125.00000      1.999907
    1566           0      1632.069946  -1142.787354  -29375.00000      4.574951
    1567           0      1632.069946  -1142.787354  -29625.00000      9.399782
    1568           0      1632.069946  -1142.787354  -29875.00000     12.170531
    1569           0      1698.723877  -1047.595581  -26125.00000     49.310619
    1570           0      1698.723877  -1047.595581  -26375.00000     44.049339
    1571           0      1698.723877  -1047.595581  -26625.00000     42.933464
    1572           0      1698.723877  -1047.595581  -26875.00000     38.437679
    1573           0      1698.723877  -1047.595581  -27125.00000     35.334614
    1574           0      1698.723877  -1047.595581  -27375.00000     31.607430
    1575           0      1698.723877  -1047.595581  -27625.00000     28.226768
    1576           0      1698.723877  -1047.595581  -27875.00000     24.322878
    1577           0      1698.723877  -1047.595581  -28125.00000     20.538887
    1578           0      1698.723877  -1047.595581  -28375.00000     16.209732
    1579           0      1698.723877  -1047.595581  -28625.00000     12.209053
    1580           0      1698.723877  -1047.595581  -28875.00000      8.310631
    1581           0      1698.723877  -1047.595581  -29125.00000      7.086719
    1582           0      1698.723877  -1047.595581  -29375.00000      9.728584
    1583           0      1698.723877  -1047.595581  -29625.00000     13.676485
    1584           0      1698.723877  -1047.595581  -29875.00000     19.329597
    1585           0      1756.606689   -947.339722  -26125.00000     59.597095
    1586           0      1756.606689   -947.339722  -26375.00000     52.550686
    1587           0      1756.606689   -947.339722  -26625.00000     50.201759
    1588           0      1756.606689   -947.339722  -26875.00000     44.316418
    1589           0      1756.606689   -947.339722  -27125.00000     39.842587
    1590           0      1756.606689   -947.339722  -27375.00000     35.281620
    1591           0      1756.606689   -947.339722  -27625.00000     31.065107
    1592           0      1756.606689   -947.339722  -27875.00000     26.724907
    1593           0      1756.606689   -947.339722  -28125.00000     22.723093
    1594           0      1756.606689   -947.339722  -28375.00000     18.528776
    1595           0      1756.606689   -947.339722  -28625.00000     14.929466
    1596           0      1756.606689   -947.339722  -28875.00000     11.976034
    1597           0      1756.606689   -947.339722  -29125.00000     11.048655
    1598           0      1756.606689   -947.339722  -29375.00000     13.126158
    1599           0      1756.606689   -947.339722  -29625.00000     15.713408
    1600           0      1756.606689   -947.339722  -29875.00000     21.910109
    1601           0      1805.718140   -842.019836  -26125.00000     63.901260
    1602           0      1805.718140   -842.019836  -26375.00000     62.446499
    1603           0      1805.718140   -842.019836  -26625.00000     55.061172
    1604           0      1805.718140   -842.019836  -26875.00000     47.985447
    1605           0      1805.718140   -842.019836  -27125.00000     41.397785
    1606           0      1805.718140   -842.019836  -27375.00000     35.639523
    1607           0      1805.718140   -842.019836  -27625.00000     29.873838
    1608           0      1805.718140   -842.019836  -27875.00000     25.159773
    1609           0      1805.718140   -842.019836  -28125.00000     20.689112
    1610           0      1805.718140   -842.019836  -28375.00000     17.184237
    1611           0      1805.718140   -842.019836  -28625.00000     14.198982
    1612           0      1805.718140   -842.019836  -28875.00000     12.449202
    1613           0      1805.718140   -842.019836  -29125.00000     11.990238
    1614           0      1805.718140   -842.019836  -29375.00000     13.077596
    1615           0      1805.718140   -842.019836  -29625.00000     15.800007
    1616           0      1805.718140   -842.019836  -29875.00000     17.197571
    1617           0      1854.829468   -736.699951  -26125.00000     76.797882
    1618           0      1854.829468   -736.699951  -26375.00000     67.662430
    1619           0      1854.829468   -736.699951  -26625.00000     61.895000
    1620           0      1854.829468   -736.699951  -26875.00000     51.888756
    1621           0      1854.829468   -736.699951  -27125.00000     44.944698
    1622           0      1854.829468   -736.699951  -27375.00000     37.413181
    1623           0      1854.829468   -736.699951  -27625.00000     31.534615
    1624           0      1854.829468   -736.699951  -27875.00000     26.270229
    1625           0      1854.829468   -736.699951  -28125.00000     22.362543
    1626           0      1854.829468   -736.699951  -28375.00000     19.205774
    1627           0      1854.829468   -736.699951  -28625.00000     16.967560
    1628           0      1854.829468   -736.699951  -28875.00000     15.195692
    1629           0      1854.829468   -736.699951  -29125.00000     14.249192
    1630           0      1854.829468   -736.699951  -29375.00000     14.241843
    1631           0      1854.829468   -736.699951  -29625.00000     15.315445
    1632           0      1854.829468   -736.699951  -29875.00000     15.225092
    1633           0      1894.423584   -627.916016  -26125.00000     81.448074
    1634           0      1894.423584   -627.916016  -26375.00000     66.970535
    1635           0      1894.423584   -627.916016  -26625.00000     62.642616
    1636           0      1894.423584   -627.916016  -26875.00000     52.794891
    1637           0      1894.423584   -627.916016  -27125.00000     45.287483
    1638           0      1894.423584   -627.916016  -27375.00000     37.442444
    1639           0      1894.423584   -627.916016  -27625.00000     31.084700
    1640           0      1894.423584   -627.916016  -27875.00000     25.306263
    1641           0      1894.423584   -627.916016  -28125.00000     21.043434
    1642           0      1894.423584   -627.916016  -28375.00000     17.655590
    1643           0      1894.423584   -627.916016  -28625.00000     15.391586
    1644           0      1894.423584   -627.916016  -28875.00000     13.863652
    1645           0      1894.423584   -627.916016  -29125.00000     12.979237
    1646           0      1894.423584   -627.916016  -29375.00000     13.153988
    1647           0      1894.423584   -627.916016  -29625.00000     13.383832
    1648           0      1894.423584   -627.916016  -29875.00000     14.605573
    1649           0      1924.500366   -515.667969  -26125.00000     66.657677
    1650           0      1924.500366   -515.667969  -26375.00000     64.418739
    1651           0      1924.500366   -515.667969  -26625.00000     57.808910
    1652           0      1924.500366   -515.667969  -26875.00000     50.772743
    1653           0      1924.500366   -515.667969  -27125.00000     44.702755
    1654           0      1924.500366   -515.667969  -27375.00000     39.597366
    1655           0      1924.500366   -515.667969  -27625.00000     35.073536
    1656           0      1924.500366   -515.667969  -27875.00000     31.445534
    1657           0      1924.500366   -515.667969  -28125.00000     28.111780
    1658           0      1924.500366   -515.667969  -28375.00000     25.055847
    1659           0      1924.500366   -515.667969  -28625.00000     21.903517
    1660           0      1924.500366   -515.667969  -28875.00000     18.836700
    1661           0      1924.500366   -515.667969  -29125.00000     15.990445
    1662           0      1924.500366   -515.667969  -29375.00000     13.890741
    1663           0      1924.500366   -515.667969  -29625.00000     13.807446
    1664           0      1924.500366   -515.667969  -29875.00000     13.742548
    1665           0      1954.577148   -403.420013  -26125.00000     57.004379
    1666           0      1954.577148   -403.420013  -26375.00000     58.987892
    1667           0      1954.577148   -403.420013  -26625.00000     54.222996
    1668           0      1954.577148   -403.420013  -26875.00000     48.392265
    1669           0      1954.577148   -403.420013  -27125.00000     46.164135
    1670           0      1954.577148   -403.420013  -27375.00000     44.998993
    1671           0      1954.577148   -403.420013  -27625.00000     44.484734
    1672           0      1954.577148   -403.420013  -27875.00000     43.723461
    1673           0      1954.577148   -403.420013  -28125.00000     41.987572
    1674           0      1954.577148   -403.420013  -28375.00000     38.973866
    1675           0      1954.577148   -403.420013  -28625.00000     34.637661
    1676           0      1954.577148   -403.420013  -28875.00000     28.998182
    1677           0      1954.577148   -403.420013  -29125.00000     23.028820
    1678           0      1954.577148   -403.420013  -29375.00000     17.337830
    1679           0      1954.577148   -403.420013  -29625.00000     15.349957
    1680           0      1954.577148   -403.420013  -29875.00000     15.600382
    1681           0      1979.795044   -273.648010  -26125.00000     45.391838
    1682           0      1979.795044   -273.648010  -26375.00000     47.565762
    1683           0      1979.795044   -273.648010  -26625.00000     46.754799
    1684           0      1979.795044   -273.648010  -26875.00000     46.398499
    1685           0      1979.795044   -273.648010  -27125.00000     47.811279
    1686           0      1979.795044   -273.648010  -27375.00000     49.425831
    1687           0      1979.795044   -273.648010  -27625.00000     50.773090
    1688           0      1979.795044   -273.648010  -27875.00000     50.936062
    1689           0      1979.795044   -273.648010  -28125.00000     49.660286
    1690           0      1979.795044   -273.648010  -28375.00000     46.729774
    1691           0      1979.795044   -273.648010  -28625.00000     42.267700
    1692           0      1979.795044   -273.648010  -28875.00000     36.435204
    1693           0      1979.795044   -273.648010  -29125.00000     29.900990
    1694           0      1979.795044   -273.648010  -29375.00000     22.940046
    1695           0      1979.795044   -273.648010  -29625.00000     18.373430
    1696           0      1979.795044   -273.648010  -29875.00000     15.459521
    1697           0      1994.987305   -100.000000  -26125.00000     52.056873
    1698           0      1994.987305   -100.000000  -26375.00000     51.971626
    1699           0      1994.987305   -100.000000  -26625.00000     51.011784
    1700           0      1994.987305   -100.000000  -26875.00000     49.444874
    1701           0      1994.987305   -100.000000  -27125.00000     49.523544
    1702           0      1994.987305   -100.000000  -27375.00000     49.970901
    1703           0      1994.987305   -100.000000  -27625.00000     50.452953
    1704           0      1994.987305   -100.000000  -27875.00000     50.071529
    1705           0      1994.987305   -100.000000  -28125.00000     48.459175
    1706           0      1994.987305   -100.000000  -28375.00000     45.372665
    1707           0      1994.987305   -100.000000  -28625.00000     40.841145
    1708           0      1994.987305   -100.000000  -28875.00000     35.016369
    1709           0      1994.987305   -100.000000  -29125.00000     28.540302
    1710           0      1994.987305   -100.000000  -29375.00000     21.917690
    1711           0      1994.987305   -100.000000  -29625.00000     17.991968
    1712           0      1994.987305   -100.000000  -29875.00000     15.736390
    1713           0      1994.936035     57.882732  -13625.00000    149.763580
    1714           0      1994.936035     57.882732  -13875.00000    159.209427
    1715           0      1994.936035     57.882732  -14125.00000    151.942093
    1716           0      1994.936035     57.882732  -14375.00000    140.667923
    1717           0      1994.936035     57.882732  -14625.00000    135.370209
    1718           0      1994.936035     57.882732  -14875.00000    130.532013
    1719           0      1994.936035     57.882732  -15125.00000    128.244324
    1720           0      1994.936035     57.882732  -15375.00000    127.402534
    1721           0      1994.936035     57.882736  -15625.00000    127.766449
    1722           0      1994.936035     57.882736  -15875.00000    128.824005
    1723           0      1994.936035     57.882736  -16125.00000    130.295715
    1724           0      1994.936035     57.882736  -16375.00000    131.906845
    1725           0      1994.936035     57.882736  -16625.00000    133.497360
    1726           0      1994.936035     57.882736  -16875.00000    134.949051
    1727           0      1994.936035     57.882736  -17125.00000    136.194702
    1728           0      1994.936035     57.882736  -17375.00000    137.202469
    1729           0      1994.936035     57.882736  -17625.00000    137.959290
    1730           0      1994.936035     57.882736  -17875.00000    138.474289
    1731           0      1994.936035     57.882736  -18125.00000    138.758835
    1732           0      1994.936035     57.882736  -18375.00000    138.836288
    1733           0      1994.936035     57.882736  -18625.00000    138.724228
    1734           0      1994.936035     57.882736  -18875.00000    138.445511
    1735           0      1994.936035     57.882736  -19125.00000    138.014069
    1736           0      1994.936035     57.882736  -19375.00000    137.444778
    1737           0      1994.936035     57.882736  -19625.00000    136.742905
    1738           0      1994.936035     57.882740  -19875.00000    135.911392
    1739           0      1994.936035     57.882744  -20125.00000    134.944321
    1740           0      1994.936035     57.882744  -20375.00000    133.830444
    1741           0      1994.936035     57.882744  -20625.00000    132.550964
    1742           0      1994.936035     57.882744  -20875.00000    131.079376
    1743           0      1994.936035     57.882744  -21125.00000    129.382736
    1744           0      1994.936035     57.882744  -21375.00000    127.418663
    1745           0      1994.936035     57.882744  -21625.00000    125.139389
    1746           0      1994.936035     57.882744  -21875.00000    122.487877
    1747           0      1994.936035     57.882744  -22125.00000    119.402077
    1748           0      1994.936035     57.882744  -22375.00000    115.814796
    1749           0      1994.936035     57.882744  -22625.00000    111.653770
    1750           0      1994.936035     57.882744  -22875.00000    106.853355
    1751           0      1994.936035     57.882744  -23125.00000    101.341843
    1752           0      1994.936035     57.882744  -23375.00000     95.083488
    1753           0      1994.936035     57.882744  -23625.00000     88.036377
    1754           0      1994.936035     57.882744  -23875.00000     80.271835
    1755           0      1994.936035     57.882748  -24125.00000     71.878815
    1756           0      1994.936035     57.882748  -24375.00000     63.293041
    1757           0      1994.936035     57.882748  -24625.00000     55.135895
    1758           0      1994.936035     57.882748  -24875.00000     49.024357
    1759           0      1994.936035     57.882748  -25125.00000     46.152905
    1760           0      1994.936035     57.882748  -25375.00000     49.703629
    1761           0      1994.936035     57.882748  -25625.00000     53.852329
    1762           0      1994.936035     57.882740  -25875.00000     56.673878
    1763           0      1984.807739    173.648193  -13625.00000    170.179703
    1764           0      1984.807739    173.648193  -13875.00000    171.325729
    1765           0      1984.807739    173.648193  -14125.00000    161.566254
    1766           0      1984.807739    173.648193  -14375.00000    151.505463
    1767           0      1984.807739    173.648193  -14625.00000    142.549347
    1768           0      1984.807739    173.648193  -14875.00000    135.315948
    1769           0      1984.807739    173.648193  -15125.00000    128.530502
    1770           0      1984.807739    173.648193  -15375.00000    123.895172
    1771           0      1984.807739    173.648193  -15625.00000    120.147720
    1772           0      1984.807739    173.648178  -15875.00000    118.048508
    1773           0      1984.807739    173.648178  -16125.00000    116.804924
    1774           0      1984.807739    173.648178  -16375.00000    116.600403
    1775           0      1984.807739    173.648178  -16625.00000    116.929802
    1776           0      1984.807739    173.648178  -16875.00000    117.773201
    1777           0      1984.807739    173.648178  -17125.00000    118.825760
    1778           0      1984.807739    173.648178  -17375.00000    120.035027
    1779           0      1984.807739    173.648178  -17625.00000    121.230728
    1780           0      1984.807739    173.648178  -17875.00000    122.376831
    1781           0      1984.807739    173.648178  -18125.00000    123.383453
    1782           0      1984.807739    173.648163  -18375.00000    124.233551
    1783           0      1984.807739    173.648163  -18625.00000    124.880226
    1784           0      1984.807739    173.648163  -18875.00000    125.317314
    1785           0      1984.807739    173.648163  -19125.00000    125.518021
    1786           0      1984.807739    173.648163  -19375.00000    125.479507
    1787           0      1984.807739    173.648163  -19625.00000    125.181686
    1788           0      1984.807739    173.648148  -19875.00000    124.620132
    1789           0      1984.807739    173.648163  -20125.00000    123.773857
    1790           0      1984.807739    173.648163  -20375.00000    122.634003
    1791           0      1984.807739    173.648163  -20625.00000    121.174492
    1792           0      1984.807739    173.648163  -20875.00000    119.381271
    1793           0      1984.807739    173.648148  -21125.00000    117.221283
    1794           0      1984.807739    173.648148  -21375.00000    114.676208
    1795           0      1984.807739    173.648148  -21625.00000    111.706245
    1796           0      1984.807739    173.648148  -21875.00000    108.292763
    1797           0      1984.807739    173.648148  -22125.00000    104.392952
    1798           0      1984.807739    173.648148  -22375.00000     99.996582
    1799           0      1984.807739    173.648148  -22625.00000     95.068550
    1800           0      1984.807739    173.648132  -22875.00000     89.625381
    1801           0      1984.807739    173.648132  -23125.00000     83.667465
    1802           0      1984.807739    173.648132  -23375.00000     77.276115
    1803           0      1984.807739    173.648132  -23625.00000     70.562401
    1804           0      1984.807739    173.648132  -23875.00000     63.753712
    1805           0      1984.807739    173.648132  -24125.00000     57.283852
    1806           0      1984.807739    173.648132  -24375.00000     51.664009
    1807           0      1984.807739    173.648132  -24625.00000     48.045750
    1808           0      1984.807739    173.648132  -24875.00000     47.060349
    1809           0      1984.807739    173.648132  -25125.00000     49.148792
    1810           0      1984.807739    173.648132  -25375.00000     55.524239
    1811           0      1984.807739    173.648117  -25625.00000     61.653305
    1812           0      1984.807739    173.648163  -25875.00000     63.131420
    1813           0      1974.679443    289.413666  -13625.00000    199.760193
    1814           0      1974.679443    289.413666  -13875.00000    177.159409
    1815           0      1974.679443    289.413635  -14125.00000    174.442841
    1816           0      1974.679443    289.413635  -14375.00000    160.443024
    1817           0      1974.679443    289.413635  -14625.00000    150.357773
    1818           0      1974.679443    289.413635  -14875.00000    139.153671
    1819           0      1974.679443    289.413635  -15125.00000    129.919968
    1820           0      1974.679443    289.413635  -15375.00000    120.933159
    1821           0      1974.679443    289.413635  -15625.00000    114.101860
    1822           0      1974.679443    289.413635  -15875.00000    108.326736
    1823           0      1974.679443    289.413635  -16125.00000    104.515831
    1824           0      1974.679443    289.413635  -16375.00000    101.935768
    1825           0      1974.679443    289.413635  -16625.00000    100.838371
    1826           0      1974.679443    289.413635  -16875.00000    100.678474
    1827           0      1974.679443    289.413635  -17125.00000    101.404205
    1828           0      1974.679443    289.413635  -17375.00000    102.629341
    1829           0      1974.679443    289.413635  -17625.00000    104.230042
    1830           0      1974.679443    289.413635  -17875.00000    105.961220
    1831           0      1974.679443    289.413635  -18125.00000    107.719818
    1832           0      1974.679443    289.413635  -18375.00000    109.362267
    1833           0      1974.679443    289.413635  -18625.00000    110.821373
    1834           0      1974.679443    289.413635  -18875.00000    112.015167
    1835           0      1974.679443    289.413635  -19125.00000    112.903381
    1836           0      1974.679443    289.413635  -19375.00000    113.437210
    1837           0      1974.679443    289.413605  -19625.00000    113.592270
    1838           0      1974.679443    289.413605  -19875.00000    113.335312
    1839           0      1974.679443    289.413605  -20125.00000    112.650253
    1840           0      1974.679443    289.413605  -20375.00000    111.509544
    1841           0      1974.679443    289.413605  -20625.00000    109.901581
    1842           0      1974.679443    289.413605  -20875.00000    107.799309
    1843           0      1974.679443    289.413605  -21125.00000    105.195717
    1844           0      1974.679443    289.413605  -21375.00000    102.062363
    1845           0      1974.679443    289.413605  -21625.00000     98.401253
    1846           0      1974.679443    289.413605  -21875.00000     94.184334
    1847           0      1974.679443    289.413605  -22125.00000     89.433632
    1848           0      1974.679443    289.413605  -22375.00000     84.129570
    1849           0      1974.679443    289.413574  -22625.00000     78.337944
    1850           0      1974.679443    289.413574  -22875.00000     72.073189
    1851           0      1974.679443    289.413574  -23125.00000     65.498329
    1852           0      1974.679443    289.413574  -23375.00000     58.742828
    1853           0      1974.679443    289.413574  -23625.00000     52.194954
    1854           0      1974.679443    289.413574  -23875.00000     46.340221
    1855           0      1974.679443    289.413574  -24125.00000     41.988117
    1856           0      1974.679443    289.413574  -24375.00000     40.216797
    1857           0      1974.679443    289.413574  -24625.00000     41.400898
    1858           0      1974.679443    289.413574  -24875.00000     45.964577
    1859           0      1974.679443    289.413574  -25125.00000     52.036766
    1860           0      1974.679443    289.413574  -25375.00000     61.159885
    1861           0      1974.679443    289.413574  -25625.00000     66.247299
    1862           0      1974.679443    289.413605  -25875.00000     77.262016
    1863           0      1954.577026    403.420410  -13625.00000    189.879471
    1864           0      1954.577026    403.420410  -13875.00000    184.748169
    1865           0      1954.577026    403.420410  -14125.00000    176.169205
    1866           0      1954.577026    403.420410  -14375.00000    161.876022
    1867           0      1954.577026    403.420410  -14625.00000    151.660049
    1868           0      1954.577026    403.420410  -14875.00000    139.756149
    1869           0      1954.577026    403.420410  -15125.00000    129.424759
    1870           0      1954.577026    403.420410  -15375.00000    119.311409
    1871           0      1954.577026    403.420410  -15625.00000    110.672165
    1872           0      1954.577026    403.420410  -15875.00000    103.050919
    1873           0      1954.577026    403.420410  -16125.00000     96.952141
    1874           0      1954.577026    403.420410  -16375.00000     92.200630
    1875           0      1954.577026    403.420410  -16625.00000     88.866898
    1876           0      1954.577026    403.420410  -16875.00000     86.805206
    1877           0      1954.577026    403.420410  -17125.00000     85.835381
    1878           0      1954.577026    403.420410  -17375.00000     85.774086
    1879           0      1954.577026    403.420410  -17625.00000     86.355515
    1880           0      1954.577026    403.420410  -17875.00000     87.403725
    1881           0      1954.577026    403.420410  -18125.00000     88.683090
    1882           0      1954.577026    403.420410  -18375.00000     90.064354
    1883           0      1954.577026    403.420410  -18625.00000     91.378899
    1884           0      1954.577026    403.420410  -18875.00000     92.545479
    1885           0      1954.577026    403.420410  -19125.00000     93.454086
    1886           0      1954.577026    403.420410  -19375.00000     94.056938
    1887           0      1954.577026    403.420410  -19625.00000     94.284126
    1888           0      1954.577026    403.420410  -19875.00000     94.107330
    1889           0      1954.577026    403.420410  -20125.00000     93.481979
    1890           0      1954.577026    403.420410  -20375.00000     92.390114
    1891           0      1954.577026    403.420410  -20625.00000     90.803711
    1892           0      1954.577026    403.420410  -20875.00000     88.710403
    1893           0      1954.577026    403.420410  -21125.00000     86.095413
    1894           0      1954.577026    403.420410  -21375.00000     82.950897
    1895           0      1954.577026    403.420410  -21625.00000     79.277557
    1896           0      1954.577026    403.420410  -21875.00000     75.075180
    1897           0      1954.577026    403.420410  -22125.00000     70.369690
    1898           0      1954.577026    403.420410  -22375.00000     65.179718
    1899           0      1954.577026    403.420410  -22625.00000     59.582188
    1900           0      1954.577026    403.420410  -22875.00000     53.651043
    1901           0      1954.577026    403.420410  -23125.00000     47.584621
    1902           0      1954.577026    403.420410  -23375.00000     41.642792
    1903           0      1954.577026    403.420410  -23625.00000     36.341587
    1904           0      1954.577026    403.420410  -23875.00000     32.505516
    1905           0      1954.577026    403.420410  -24125.00000     31.019360
    1906           0      1954.577026    403.420410  -24375.00000     32.906773
    1907           0      1954.577026    403.420410  -24625.00000     37.248550
    1908           0      1954.577026    403.420410  -24875.00000     44.279144
    1909           0      1954.577026    403.420410  -25125.00000     51.243267
    1910           0      1954.577026    403.420410  -25375.00000     60.990650
    1911           0      1954.577026    403.420410  -25625.00000     66.259277
    1912           0      1954.577026    403.420410  -25875.00000     76.909119
    1913           0      1924.500244    515.668335  -13625.00000    176.422836
    1914           0      1924.500244    515.668335  -13875.00000    180.121384
    1915           0      1924.500244    515.668335  -14125.00000    167.220993
    1916           0      1924.500244    515.668335  -14375.00000    156.521301
    1917           0      1924.500244    515.668335  -14625.00000    145.951797
    1918           0      1924.500244    515.668335  -14875.00000    136.448334
    1919           0      1924.500244    515.668335  -15125.00000    126.208801
    1920           0      1924.500244    515.668335  -15375.00000    117.332268
    1921           0      1924.500244    515.668335  -15625.00000    108.353134
    1922           0      1924.500244    515.668335  -15875.00000    100.530869
    1923           0      1924.500244    515.668335  -16125.00000     93.154991
    1924           0      1924.500244    515.668335  -16375.00000     86.871910
    1925           0      1924.500244    515.668335  -16625.00000     81.362808
    1926           0      1924.500244    515.668335  -16875.00000     76.912582
    1927           0      1924.500244    515.668335  -17125.00000     73.356384
    1928           0      1924.500244    515.668335  -17375.00000     70.739357
    1929           0      1924.500244    515.668335  -17625.00000     68.921844
    1930           0      1924.500244    515.668335  -17875.00000     67.797775
    1931           0      1924.500244    515.668335  -18125.00000     67.220947
    1932           0      1924.500244    515.668335  -18375.00000     67.026360
    1933           0      1924.500244    515.668335  -18625.00000     67.082970
    1934           0      1924.500244    515.668335  -18875.00000     67.235565
    1935           0      1924.500244    515.668335  -19125.00000     67.386986
    1936           0      1924.500244    515.668335  -19375.00000     67.418854
    1937           0      1924.500244    515.668335  -19625.00000     67.267853
    1938           0      1924.500244    515.668335  -19875.00000     66.852898
    1939           0      1924.500244    515.668396  -20125.00000     66.135834
    1940           0      1924.500244    515.668396  -20375.00000     65.065628
    1941           0      1924.500244    515.668396  -20625.00000     63.620895
    1942           0      1924.500244    515.668396  -20875.00000     61.774681
    1943           0      1924.500244    515.668396  -21125.00000     59.517086
    1944           0      1924.500244    515.668396  -21375.00000     56.843891
    1945           0      1924.500244    515.668396  -21625.00000     53.755688
    1946           0      1924.500244    515.668396  -21875.00000     50.276440
    1947           0      1924.500244    515.668396  -22125.00000     46.423370
    1948           0      1924.500244    515.668396  -22375.00000     42.267666
    1949           0      1924.500244    515.668396  -22625.00000     37.870510
    1950           0      1924.500244    515.668396  -22875.00000     33.407204
    1951           0      1924.500244    515.668396  -23125.00000     29.088491
    1952           0      1924.500244    515.668396  -23375.00000     25.361437
    1953           0      1924.500244    515.668396  -23625.00000     22.873652
    1954           0      1924.500244    515.668396  -23875.00000     22.346836
    1955           0      1924.500244    515.668396  -24125.00000     24.342857
    1956           0      1924.500244    515.668396  -24375.00000     28.222187
    1957           0      1924.500244    515.668396  -24625.00000     33.849159
    1958           0      1924.500244    515.668396  -24875.00000     39.960079
    1959           0      1924.500244    515.668396  -25125.00000     46.620964
    1960           0      1924.500244    515.668396  -25375.00000     53.937763
    1961           0      1924.500244    515.668396  -25625.00000     61.602192
    1962           0      1924.500244    515.668396  -25875.00000     62.314354
    1963           0      1894.423584    627.916321  -13625.00000    179.948303
    1964           0      1894.423584    627.916321  -13875.00000    163.589752
    1965           0      1894.423584    627.916321  -14125.00000    161.966660
    1966           0      1894.423584    627.916321  -14375.00000    150.023117
    1967           0      1894.423584    627.916321  -14625.00000    141.612961
    1968           0      1894.423584    627.916321  -14875.00000    132.344940
    1969           0      1894.423584    627.916321  -15125.00000    123.934090
    1970           0      1894.423584    627.916321  -15375.00000    115.050293
    1971           0      1894.423584    627.916321  -15625.00000    106.958611
    1972           0      1894.423584    627.916321  -15875.00000     98.708710
    1973           0      1894.423584    627.916321  -16125.00000     91.197868
    1974           0      1894.423584    627.916321  -16375.00000     83.872482
    1975           0      1894.423584    627.916321  -16625.00000     77.305466
    1976           0      1894.423584    627.916321  -16875.00000     71.191597
    1977           0      1894.423584    627.916321  -17125.00000     65.875641
    1978           0      1894.423584    627.916321  -17375.00000     61.186764
    1979           0      1894.423584    627.916321  -17625.00000     57.298531
    1980           0      1894.423584    627.916321  -17875.00000     54.089027
    1981           0      1894.423584    627.916321  -18125.00000     51.591022
    1982           0      1894.423584    627.916321  -18375.00000     49.677601
    1983           0      1894.423584    627.916321  -18625.00000     48.278168
    1984           0      1894.423584    627.916321  -18875.00000     47.254669
    1985           0      1894.423584    627.916321  -19125.00000     46.491699
    1986           0      1894.423584    627.916321  -19375.00000     45.864445
    1987           0      1894.423584    627.916321  -19625.00000     45.264462
    1988           0      1894.423584    627.916321  -19875.00000     44.597393
    1989           0      1894.423584    627.916382  -20125.00000     43.785965
    1990           0      1894.423584    627.916382  -20375.00000     42.765965
    1991           0      1894.423584    627.916382  -20625.00000     41.494659
    1992           0      1894.423584    627.916382  -20875.00000     39.929909
    1993           0      1894.423584    627.916382  -21125.00000     38.062199
    1994           0      1894.423584    627.916382  -21375.00000     35.863663
    1995           0      1894.423584    627.916382  -21625.00000     33.360424
    1996           0      1894.423584    627.916382  -21875.00000     30.536833
    1997           0      1894.423584    627.916382  -22125.00000     27.470406
    1998           0      1894.423584    627.916382  -22375.00000     24.175652
    1999           0      1894.423584    627.916382  -22625.00000     20.841137
    2000           0      1894.423584    627.916382  -22875.00000     17.616537
    2001           0      1894.423584    627.916382  -23125.00000     15.027772
    2002           0      1894.423584    627.916382  -23375.00000     13.675237
    2003           0      1894.423584    627.916382  -23625.00000     14.344580
    2004           0      1894.423584    627.916382  -23875.00000     16.942863
    2005           0      1894.423584    627.916382  -24125.00000     20.936380
    2006           0      1894.423584    627.916382  -24375.00000     25.683687
    2007           0      1894.423584    627.916382  -24625.00000     30.919580
    2008           0      1894.423584    627.916382  -24875.00000     36.272892
    2009           0      1894.423584    627.916382  -25125.00000     41.659687
    2010           0      1894.423584    627.916382  -25375.00000     47.973579
    2011           0      1894.423584    627.916382  -25625.00000     52.076942
    2012           0      1894.423584    627.916321  -25875.00000     55.950069
    2013           0      1854.829346    736.700317  -13625.00000    159.558990
    2014           0      1854.829346    736.700317  -13875.00000    156.280121
    2015           0      1854.829346    736.700317  -14125.00000    151.804138
    2016           0      1854.829346    736.700317  -14375.00000    141.956512
    2017           0      1854.829346    736.700317  -14625.00000    134.987915
    2018           0      1854.829346    736.700317  -14875.00000    126.903725
    2019           0      1854.829346    736.700317  -15125.00000    119.605431
    2020           0      1854.829346    736.700317  -15375.00000    111.921944
    2021           0      1854.829346    736.700317  -15625.00000    104.667908
    2022           0      1854.829346    736.700317  -15875.00000     97.397385
    2023           0      1854.829346    736.700317  -16125.00000     90.476913
    2024           0      1854.829346    736.700317  -16375.00000     83.805809
    2025           0      1854.829346    736.700317  -16625.00000     77.522720
    2026           0      1854.829346    736.700317  -16875.00000     71.659332
    2027           0      1854.829346    736.700317  -17125.00000     66.252357
    2028           0      1854.829346    736.700317  -17375.00000     61.366631
    2029           0      1854.829346    736.700317  -17625.00000     56.993217
    2030           0      1854.829346    736.700317  -17875.00000     53.182850
    2031           0      1854.829346    736.700317  -18125.00000     49.897251
    2032           0      1854.829346    736.700317  -18375.00000     47.147545
    2033           0      1854.829346    736.700317  -18625.00000     44.866577
    2034           0      1854.829346    736.700317  -18875.00000     43.019081
    2035           0      1854.829346    736.700317  -19125.00000     41.514881
    2036           0      1854.829346    736.700317  -19375.00000     40.287937
    2037           0      1854.829346    736.700317  -19625.00000     39.242771
    2038           0      1854.829346    736.700317  -19875.00000     38.309128
    2039           0      1854.829346    736.700317  -20125.00000     37.405823
    2040           0      1854.829346    736.700317  -20375.00000     36.478699
    2041           0      1854.829346    736.700317  -20625.00000     35.468067
    2042           0      1854.829346    736.700317  -20875.00000     34.345364
    2043           0      1854.829346    736.700317  -21125.00000     33.073906
    2044           0      1854.829346    736.700317  -21375.00000     31.654400
    2045           0      1854.829346    736.700317  -21625.00000     30.073273
    2046           0      1854.829346    736.700317  -21875.00000     28.367510
    2047           0      1854.829346    736.700317  -22125.00000     26.556156
    2048           0      1854.829346    736.700317  -22375.00000     24.731701
    2049           0      1854.829346    736.700317  -22625.00000     22.974659
    2050           0      1854.829346    736.700317  -22875.00000     21.470669
    2051           0      1854.829346    736.700317  -23125.00000     20.393454
    2052           0      1854.829346    736.700317  -23375.00000     20.010902
    2053           0      1854.829346    736.700317  -23625.00000     20.456169
    2054           0      1854.829346    736.700317  -23875.00000     21.859453
    2055           0      1854.829346    736.700317  -24125.00000     24.013859
    2056           0      1854.829346    736.700317  -24375.00000     26.928316
    2057           0      1854.829346    736.700317  -24625.00000     30.120092
    2058           0      1854.829346    736.700317  -24875.00000     33.839485
    2059           0      1854.829346    736.700317  -25125.00000     37.351437
    2060           0      1854.829346    736.700317  -25375.00000     42.148777
    2061           0      1854.829346    736.700317  -25625.00000     43.466759
    2062           0      1854.829346    736.700317  -25875.00000     50.076412
    2063           0      1805.717896    842.020203  -13625.00000    141.087875
    2064           0      1805.717896    842.020203  -13875.00000    147.151184
    2065           0      1805.717896    842.020203  -14125.00000    138.470779
    2066           0      1805.717896    842.020203  -14375.00000    132.193573
    2067           0      1805.717896    842.020203  -14625.00000    125.619682
    2068           0      1805.717896    842.020203  -14875.00000    119.654869
    2069           0      1805.717896    842.020203  -15125.00000    113.056564
    2070           0      1805.717896    842.020203  -15375.00000    107.113632
    2071           0      1805.717896    842.020203  -15625.00000    100.841530
    2072           0      1805.717896    842.020203  -15875.00000     95.011047
    2073           0      1805.717896    842.020142  -16125.00000     89.146927
    2074           0      1805.717896    842.020142  -16375.00000     83.647385
    2075           0      1805.717896    842.020142  -16625.00000     78.309601
    2076           0      1805.717896    842.020142  -16875.00000     73.330765
    2077           0      1805.717896    842.020142  -17125.00000     68.639809
    2078           0      1805.717896    842.020142  -17375.00000     64.325089
    2079           0      1805.717896    842.020142  -17625.00000     60.371853
    2080           0      1805.717896    842.020142  -17875.00000     56.807503
    2081           0      1805.717896    842.020142  -18125.00000     53.631512
    2082           0      1805.717896    842.020142  -18375.00000     50.833069
    2083           0      1805.717896    842.020142  -18625.00000     48.403061
    2084           0      1805.717896    842.020142  -18875.00000     46.303936
    2085           0      1805.717896    842.020142  -19125.00000     44.509583
    2086           0      1805.717896    842.020142  -19375.00000     42.965549
    2087           0      1805.717896    842.020142  -19625.00000     41.632793
    2088           0      1805.717896    842.020142  -19875.00000     40.450363
    2089           0      1805.717896    842.020142  -20125.00000     39.378120
    2090           0      1805.717896    842.020142  -20375.00000     38.360016
    2091           0      1805.717896    842.020142  -20625.00000     37.364151
    2092           0      1805.717896    842.020142  -20875.00000     36.346581
    2093           0      1805.717896    842.020142  -21125.00000     35.292191
    2094           0      1805.717896    842.020142  -21375.00000     34.172913
    2095           0      1805.717896    842.020142  -21625.00000     32.996708
    2096           0      1805.717896    842.020142  -21875.00000     31.755222
    2097           0      1805.717896    842.020142  -22125.00000     30.487246
    2098           0      1805.717896    842.020142  -22375.00000     29.209919
    2099           0      1805.717896    842.020142  -22625.00000     28.002539
    2100           0      1805.717896    842.020142  -22875.00000     26.911940
    2101           0      1805.717896    842.020142  -23125.00000     26.058947
    2102           0      1805.717896    842.020142  -23375.00000     25.503286
    2103           0      1805.717896    842.020081  -23625.00000     25.369181
    2104           0      1805.717896    842.020081  -23875.00000     25.670465
    2105           0      1805.717896    842.020081  -24125.00000     26.456667
    2106           0      1805.717896    842.020081  -24375.00000     27.664112
    2107           0      1805.717896    842.020081  -24625.00000     29.241734
    2108           0      1805.717896    842.020081  -24875.00000     31.137016
    2109           0      1805.717896    842.020081  -25125.00000     33.225632
    2110           0      1805.717896    842.020081  -25375.00000     35.494473
    2111           0      1805.717896    842.020081  -25625.00000     38.526897
    2112           0      1805.717896    842.020142  -25875.00000     37.499321
    2113           0      1756.606445    947.340088  -13625.00000    135.798233
    2114           0      1756.606445    947.340088  -13875.00000    127.337189
    2115           0      1756.606445    947.340088  -14125.00000    127.755722
    2116           0      1756.606445    947.340088  -14375.00000    121.323296
    2117           0      1756.606445    947.340088  -14625.00000    116.706909
    2118           0      1756.606445    947.340088  -14875.00000    111.853996
    2119           0      1756.606445    947.340088  -15125.00000    107.159920
    2120           0      1756.606445    947.340088  -15375.00000    102.344383
    2121           0      1756.606445    947.340088  -15625.00000     97.839890
    2122           0      1756.606445    947.340088  -15875.00000     93.267456
    2123           0      1756.606445    947.340027  -16125.00000     89.003845
    2124           0      1756.606445    947.340027  -16375.00000     84.799568
    2125           0      1756.606445    947.340027  -16625.00000     80.911308
    2126           0      1756.606445    947.340027  -16875.00000     77.197876
    2127           0      1756.606445    947.340027  -17125.00000     73.818741
    2128           0      1756.606445    947.340027  -17375.00000     70.694939
    2129           0      1756.606445    947.340027  -17625.00000     67.910454
    2130           0      1756.606445    947.340027  -17875.00000     65.413956
    2131           0      1756.606445    947.340027  -18125.00000     63.233276
    2132           0      1756.606445    947.340027  -18375.00000     61.324348
    2133           0      1756.606445    947.340027  -18625.00000     59.676235
    2134           0      1756.606445    947.340027  -18875.00000     58.244240
    2135           0      1756.606445    947.340027  -19125.00000     56.994915
    2136           0      1756.606445    947.340027  -19375.00000     55.882469
    2137           0      1756.606445    947.340027  -19625.00000     54.865349
    2138           0      1756.606445    947.340027  -19875.00000     53.900105
    2139           0      1756.606445    947.340027  -20125.00000     52.944939
    2140           0      1756.606445    947.340027  -20375.00000     51.965557
    2141           0      1756.606445    947.340027  -20625.00000     50.927612
    2142           0      1756.606445    947.340027  -20875.00000     49.807121
    2143           0      1756.606445    947.340027  -21125.00000     48.580738
    2144           0      1756.606445    947.340027  -21375.00000     47.239296
    2145           0      1756.606445    947.340027  -21625.00000     45.774109
    2146           0      1756.606445    947.340027  -21875.00000     44.194508
    2147           0      1756.606445    947.340027  -22125.00000     42.510120
    2148           0      1756.606445    947.340027  -22375.00000     40.753132
    2149           0      1756.606445    947.340027  -22625.00000     38.954247
    2150           0      1756.606445    947.340027  -22875.00000     37.169411
    2151           0      1756.606445    947.340027  -23125.00000     35.448799
    2152           0      1756.606445    947.340027  -23375.00000     33.859211
    2153           0      1756.606445    947.339966  -23625.00000     32.462891
    2154           0      1756.606445    947.339966  -23875.00000     31.294401
    2155           0      1756.606445    947.339966  -24125.00000     30.436047
    2156           0      1756.606445    947.339966  -24375.00000     29.802891
    2157           0      1756.606445    947.339966  -24625.00000     29.589760
    2158           0      1756.606445    947.339966  -24875.00000     29.481785
    2159           0      1756.606445    947.339966  -25125.00000     29.804394
    2160           0      1756.606445    947.339966  -25375.00000     30.318497
    2161           0      1756.606445    947.339966  -25625.00000     31.492044
    2162           0      1756.606445    947.340027  -25875.00000     28.558134
    2163           0      1698.723633   1047.595947  -13625.00000    119.042336
    2164           0      1698.723633   1047.595947  -13875.00000    119.556961
    2165           0      1698.723633   1047.595947  -14125.00000    118.080429
    2166           0      1698.723633   1047.595947  -14375.00000    113.354225
    2167           0      1698.723633   1047.595947  -14625.00000    109.972298
    2168           0      1698.723633   1047.595947  -14875.00000    106.134918
    2169           0      1698.723633   1047.595947  -15125.00000    102.549217
    2170           0      1698.723633   1047.595947  -15375.00000     98.842903
    2171           0      1698.723633   1047.595947  -15625.00000     95.323570
    2172           0      1698.723633   1047.595947  -15875.00000     91.826645
    2173           0      1698.723633   1047.595947  -16125.00000     88.480911
    2174           0      1698.723633   1047.595947  -16375.00000     85.266144
    2175           0      1698.723633   1047.595947  -16625.00000     82.224586
    2176           0      1698.723633   1047.595947  -16875.00000     79.391090
    2177           0      1698.723633   1047.595947  -17125.00000     76.770439
    2178           0      1698.723633   1047.595947  -17375.00000     74.399673
    2179           0      1698.723633   1047.595947  -17625.00000     72.261559
    2180           0      1698.723633   1047.595947  -17875.00000     70.372894
    2181           0      1698.723633   1047.595947  -18125.00000     68.700943
    2182           0      1698.723633   1047.595947  -18375.00000     67.238724
    2183           0      1698.723633   1047.595947  -18625.00000     65.944191
    2184           0      1698.723633   1047.595947  -18875.00000     64.792282
    2185           0      1698.723633   1047.595947  -19125.00000     63.739109
    2186           0      1698.723633   1047.595947  -19375.00000     62.750278
    2187           0      1698.723633   1047.595947  -19625.00000     61.784103
    2188           0      1698.723633   1047.595947  -19875.00000     60.808826
    2189           0      1698.723633   1047.595947  -20125.00000     59.787369
    2190           0      1698.723633   1047.595947  -20375.00000     58.689964
    2191           0      1698.723633   1047.595947  -20625.00000     57.494259
    2192           0      1698.723633   1047.595947  -20875.00000     56.177151
    2193           0      1698.723633   1047.595947  -21125.00000     54.728832
    2194           0      1698.723633   1047.595947  -21375.00000     53.137016
    2195           0      1698.723633   1047.595947  -21625.00000     51.408394
    2196           0      1698.723633   1047.595947  -21875.00000     49.542633
    2197           0      1698.723633   1047.595947  -22125.00000     47.567192
    2198           0      1698.723633   1047.595947  -22375.00000     45.493298
    2199           0      1698.723633   1047.595947  -22625.00000     43.373425
    2200           0      1698.723633   1047.595947  -22875.00000     41.224262
    2201           0      1698.723633   1047.595947  -23125.00000     39.125755
    2202           0      1698.723633   1047.595947  -23375.00000     37.082222
    2203           0      1698.723633   1047.595947  -23625.00000     35.201454
    2204           0      1698.723633   1047.595947  -23875.00000     33.440826
    2205           0      1698.723633   1047.595947  -24125.00000     31.943546
    2206           0      1698.723633   1047.595947  -24375.00000     30.567795
    2207           0      1698.723633   1047.595947  -24625.00000     29.548582
    2208           0      1698.723633   1047.595947  -24875.00000     28.548719
    2209           0      1698.723633   1047.595947  -25125.00000     27.963923
    2210           0      1698.723633   1047.595947  -25375.00000     27.639992
    2211           0      1698.723633   1047.595947  -25625.00000     26.488276
    2212           0      1698.723633   1047.595947  -25875.00000     27.405394
    2213           0      1632.069702   1142.787598  -13625.00000    108.796066
    2214           0      1632.069702   1142.787598  -13875.00000    115.910789
    2215           0      1632.069702   1142.787598  -14125.00000    110.863480
    2216           0      1632.069702   1142.787598  -14375.00000    108.118698
    2217           0      1632.069702   1142.787598  -14625.00000    105.122490
    2218           0      1632.069702   1142.787598  -14875.00000    102.307167
    2219           0      1632.069702   1142.787598  -15125.00000     99.200089
    2220           0      1632.069702   1142.787598  -15375.00000     96.371170
    2221           0      1632.069702   1142.787598  -15625.00000     93.376556
    2222           0      1632.069702   1142.787598  -15875.00000     90.574196
    2223           0      1632.069702   1142.787598  -16125.00000     87.743614
    2224           0      1632.069702   1142.787598  -16375.00000     85.069000
    2225           0      1632.069702   1142.787598  -16625.00000     82.458939
    2226           0      1632.069702   1142.787598  -16875.00000     80.005074
    2227           0      1632.069702   1142.787598  -17125.00000     77.676308
    2228           0      1632.069702   1142.787598  -17375.00000     75.511688
    2229           0      1632.069702   1142.787598  -17625.00000     73.500488
    2230           0      1632.069702   1142.787598  -17875.00000     71.649002
    2231           0      1632.069702   1142.787598  -18125.00000     69.946632
    2232           0      1632.069702   1142.787598  -18375.00000     68.378716
    2233           0      1632.069702   1142.787598  -18625.00000     66.927925
    2234           0      1632.069702   1142.787598  -18875.00000     65.567978
    2235           0      1632.069702   1142.787598  -19125.00000     64.274086
    2236           0      1632.069702   1142.787598  -19375.00000     63.019329
    2237           0      1632.069702   1142.787598  -19625.00000     61.772800
    2238           0      1632.069702   1142.787598  -19875.00000     60.511757
    2239           0      1632.069702   1142.787598  -20125.00000     59.212048
    2240           0      1632.069702   1142.787598  -20375.00000     57.850037
    2241           0      1632.069702   1142.787598  -20625.00000     56.410320
    2242           0      1632.069702   1142.787598  -20875.00000     54.881569
    2243           0      1632.069702   1142.787598  -21125.00000     53.255039
    2244           0      1632.069702   1142.787598  -21375.00000     51.531960
    2245           0      1632.069702   1142.787598  -21625.00000     49.713345
    2246           0      1632.069702   1142.787598  -21875.00000     47.813831
    2247           0      1632.069702   1142.787598  -22125.00000     45.843918
    2248           0      1632.069702   1142.787598  -22375.00000     43.831898
    2249           0      1632.069702   1142.787598  -22625.00000     41.794373
    2250           0      1632.069702   1142.787598  -22875.00000     39.772678
    2251           0      1632.069702   1142.787598  -23125.00000     37.781067
    2252           0      1632.069702   1142.787598  -23375.00000     35.874649
    2253           0      1632.069702   1142.787598  -23625.00000     34.048466
    2254           0      1632.069702   1142.787598  -23875.00000     32.381275
    2255           0      1632.069702   1142.787598  -24125.00000     30.815132
    2256           0      1632.069702   1142.787598  -24375.00000     29.490856
    2257           0      1632.069702   1142.787598  -24625.00000     28.226801
    2258           0      1632.069702   1142.787598  -24875.00000     27.292065
    2259           0      1632.069702   1142.787598  -25125.00000     26.385403
    2260           0      1632.069702   1142.787598  -25375.00000     25.630819
    2261           0      1632.069702   1142.787598  -25625.00000     25.379351
    2262           0      1632.069702   1142.787598  -25875.00000     24.041767
    2263           0      1565.415771   1237.979248  -13625.00000    107.322693
    2264           0      1565.415771   1237.979248  -13875.00000    103.177727
    2265           0      1565.415771   1237.979248  -14125.00000    104.843727
    2266           0      1565.415771   1237.979248  -14375.00000    101.679565
    2267           0      1565.415771   1237.979248  -14625.00000     99.674370
    2268           0      1565.415771   1237.979248  -14875.00000     97.667206
    2269           0      1565.415771   1237.979248  -15125.00000     95.610794
    2270           0      1565.415771   1237.979248  -15375.00000     93.546852
    2271           0      1565.415771   1237.979248  -15625.00000     91.582993
    2272           0      1565.415771   1237.979248  -15875.00000     89.603310
    2273           0      1565.415771   1237.979248  -16125.00000     87.739174
    2274           0      1565.415771   1237.979248  -16375.00000     85.903831
    2275           0      1565.415771   1237.979248  -16625.00000     84.180420
    2276           0      1565.415771   1237.979248  -16875.00000     82.517349
    2277           0      1565.415771   1237.979248  -17125.00000     80.960114
    2278           0      1565.415771   1237.979248  -17375.00000     79.478004
    2279           0      1565.415771   1237.979248  -17625.00000     78.089005
    2280           0      1565.415771   1237.979248  -17875.00000     76.770836
    2281           0      1565.415771   1237.979248  -18125.00000     75.521095
    2282           0      1565.415771   1237.979248  -18375.00000     74.318405
    2283           0      1565.415771   1237.979248  -18625.00000     73.146362
    2284           0      1565.415771   1237.979248  -18875.00000     71.983215
    2285           0      1565.415771   1237.979248  -19125.00000     70.803246
    2286           0      1565.415771   1237.979248  -19375.00000     69.586876
    2287           0      1565.415771   1237.979370  -19625.00000     68.310425
    2288           0      1565.415771   1237.979370  -19875.00000     66.950279
    2289           0      1565.415771   1237.979370  -20125.00000     65.494499
    2290           0      1565.415771   1237.979370  -20375.00000     63.925529
    2291           0      1565.415771   1237.979370  -20625.00000     62.234737
    2292           0      1565.415771   1237.979370  -20875.00000     60.417809
    2293           0      1565.415771   1237.979370  -21125.00000     58.474773
    2294           0      1565.415771   1237.979370  -21375.00000     56.412052
    2295           0      1565.415771   1237.979370  -21625.00000     54.240108
    2296           0      1565.415771   1237.979370  -21875.00000     51.975861
    2297           0      1565.415771   1237.979370  -22125.00000     49.639042
    2298           0      1565.415771   1237.979370  -22375.00000     47.255043
    2299           0      1565.415771   1237.979370  -22625.00000     44.849857
    2300           0      1565.415771   1237.979370  -22875.00000     42.453163
    2301           0      1565.415771   1237.979370  -23125.00000     40.093285
    2302           0      1565.415771   1237.979370  -23375.00000     37.798542
    2303           0      1565.415771   1237.979370  -23625.00000     35.597385
    2304           0      1565.415771   1237.979370  -23875.00000     33.511513
    2305           0      1565.415771   1237.979370  -24125.00000     31.571953
    2306           0      1565.415771   1237.979370  -24375.00000     29.790550
    2307           0      1565.415771   1237.979370  -24625.00000     28.197166
    2308           0      1565.415771   1237.979370  -24875.00000     26.820492
    2309           0      1565.415771   1237.979370  -25125.00000     25.603224
    2310           0      1565.415771   1237.979370  -25375.00000     24.660887
    2311           0      1565.415771   1237.979370  -25625.00000     24.193439
    2312           0      1565.415771   1237.979370  -25875.00000     22.311909
    2313           0      1491.003052   1326.660889  -13625.00000     99.030258
    2314           0      1491.003052   1326.660889  -13875.00000    101.796249
    2315           0      1491.003052   1326.660889  -14125.00000    101.622185
    2316           0      1491.003052   1326.660889  -14375.00000     99.317146
    2317           0      1491.003052   1326.660889  -14625.00000     97.839600
    2318           0      1491.003052   1326.660889  -14875.00000     96.269463
    2319           0      1491.003052   1326.660889  -15125.00000     94.702003
    2320           0      1491.003052   1326.660889  -15375.00000     93.139778
    2321           0      1491.003052   1326.660889  -15625.00000     91.620384
    2322           0      1491.003052   1326.660889  -15875.00000     90.119453
    2323           0      1491.003052   1326.660889  -16125.00000     88.661713
    2324           0      1491.003052   1326.660889  -16375.00000     87.243248
    2325           0      1491.003052   1326.660889  -16625.00000     85.862099
    2326           0      1491.003052   1326.660889  -16875.00000     84.523613
    2327           0      1491.003052   1326.660889  -17125.00000     83.214897
    2328           0      1491.003052   1326.660889  -17375.00000     81.941711
    2329           0      1491.003052   1326.660889  -17625.00000     80.687416
    2330           0      1491.003052   1326.660889  -17875.00000     79.453682
    2331           0      1491.003052   1326.660889  -18125.00000     78.221695
    2332           0      1491.003052   1326.660889  -18375.00000     76.987114
    2333           0      1491.003052   1326.660889  -18625.00000     75.729729
    2334           0      1491.003052   1326.660889  -18875.00000     74.438583
    2335           0      1491.003052   1326.660889  -19125.00000     73.096725
    2336           0      1491.003052   1326.660889  -19375.00000     71.685860
    2337           0      1491.003052   1326.660889  -19625.00000     70.192284
    2338           0      1491.003052   1326.660889  -19875.00000     68.601547
    2339           0      1491.003052   1326.660889  -20125.00000     66.903648
    2340           0      1491.003052   1326.660889  -20375.00000     65.086990
    2341           0      1491.003052   1326.660889  -20625.00000     63.151417
    2342           0      1491.003052   1326.660889  -20875.00000     61.088165
    2343           0      1491.003052   1326.660889  -21125.00000     58.910805
    2344           0      1491.003052   1326.660889  -21375.00000     56.613255
    2345           0      1491.003052   1326.660889  -21625.00000     54.225361
    2346           0      1491.003052   1326.660889  -21875.00000     51.740559
    2347           0      1491.003052   1326.660889  -22125.00000     49.209000
    2348           0      1491.003052   1326.660889  -22375.00000     46.616272
    2349           0      1491.003052   1326.660889  -22625.00000     44.038860
    2350           0      1491.003052   1326.660889  -22875.00000     41.441521
    2351           0      1491.003052   1326.660889  -23125.00000     38.937668
    2352           0      1491.003052   1326.660889  -23375.00000     36.450169
    2353           0      1491.003052   1326.660889  -23625.00000     34.149986
    2354           0      1491.003052   1326.660889  -23875.00000     31.885588
    2355           0      1491.003052   1326.660889  -24125.00000     29.926380
    2356           0      1491.003052   1326.660889  -24375.00000     27.992094
    2357           0      1491.003052   1326.660889  -24625.00000     26.529724
    2358           0      1491.003052   1326.660889  -24875.00000     25.040365
    2359           0      1491.003052   1326.660889  -25125.00000     24.189255
    2360           0      1491.003052   1326.660889  -25375.00000     23.382935
    2361           0      1491.003052   1326.660889  -25625.00000     23.318790
    2362           0      1491.003052   1326.660889  -25875.00000     22.569796
    2363           0      1408.831787   1408.832031  -13625.00000     97.936676
    2364           0      1408.831787   1408.832031  -13875.00000    105.754288
    2365           0      1408.831787   1408.832031  -14125.00000    102.242149
    2366           0      1408.831787   1408.832031  -14375.00000    100.871788
    2367           0      1408.831787   1408.832031  -14625.00000     99.450951
    2368           0      1408.831787   1408.832031  -14875.00000     98.041542
    2369           0      1408.831787   1408.832031  -15125.00000     96.525826
    2370           0      1408.831787   1408.832031  -15375.00000     95.156120
    2371           0      1408.831787   1408.832031  -15625.00000     93.685822
    2372           0      1408.831787   1408.832031  -15875.00000     92.310112
    2373           0      1408.831787   1408.832031  -16125.00000     90.888023
    2374           0      1408.831787   1408.832031  -16375.00000     89.516602
    2375           0      1408.831787   1408.832031  -16625.00000     88.124306
    2376           0      1408.831787   1408.832031  -16875.00000     86.752625
    2377           0      1408.831787   1408.832031  -17125.00000     85.365631
    2378           0      1408.831787   1408.832031  -17375.00000     83.976372
    2379           0      1408.831787   1408.832031  -17625.00000     82.566528
    2380           0      1408.831787   1408.832031  -17875.00000     81.135468
    2381           0      1408.831787   1408.832031  -18125.00000     79.672813
    2382           0      1408.831787   1408.832031  -18375.00000     78.171326
    2383           0      1408.831787   1408.832031  -18625.00000     76.625145
    2384           0      1408.831787   1408.832031  -18875.00000     75.020432
    2385           0      1408.832031   1408.831909  -19125.00000     73.357887
    2386           0      1408.832031   1408.831909  -19375.00000     71.623314
    2387           0      1408.832031   1408.831909  -19625.00000     69.807877
    2388           0      1408.832031   1408.831909  -19875.00000     67.913979
    2389           0      1408.832031   1408.831909  -20125.00000     65.927666
    2390           0      1408.832031   1408.831909  -20375.00000     63.853722
    2391           0      1408.832031   1408.831909  -20625.00000     61.684341
    2392           0      1408.832031   1408.831909  -20875.00000     59.428631
    2393           0      1408.832031   1408.831909  -21125.00000     57.080971
    2394           0      1408.832031   1408.831909  -21375.00000     54.660446
    2395           0      1408.832031   1408.831909  -21625.00000     52.160454
    2396           0      1408.832031   1408.831909  -21875.00000     49.613846
    2397           0      1408.832031   1408.831909  -22125.00000     47.009235
    2398           0      1408.832031   1408.831909  -22375.00000     44.398232
    2399           0      1408.832031   1408.831909  -22625.00000     41.758224
    2400           0      1408.832031   1408.831909  -22875.00000     39.167637
    2401           0      1408.832031   1408.831909  -23125.00000     36.582401
    2402           0      1408.832031   1408.831909  -23375.00000     34.120815
    2403           0      1408.832031   1408.831909  -23625.00000     31.702406
    2404           0      1408.832031   1408.831909  -23875.00000     29.505281
    2405           0      1408.832031   1408.831909  -24125.00000     27.393082
    2406           0      1408.832031   1408.831909  -24375.00000     25.628824
    2407           0      1408.832031   1408.831909  -24625.00000     24.003639
    2408           0      1408.832031   1408.831909  -24875.00000     22.856300
    2409           0      1408.832031   1408.831909  -25125.00000     21.975508
    2410           0      1408.832031   1408.832031  -25375.00000     21.526972
    2411           0      1408.831909   1408.832031  -25625.00000     21.719873
    2412           0      1408.831909   1408.832031  -25875.00000     21.618660
    2413           0      1326.660767   1491.003174  -13625.00000    103.656357
    2414           0      1326.660767   1491.003174  -13875.00000    100.910172
    2415           0      1326.660767   1491.003174  -14125.00000    103.129463
    2416           0      1326.660767   1491.003174  -14375.00000    100.723892
    2417           0      1326.660767   1491.003174  -14625.00000     99.576363
    2418           0      1326.660767   1491.003174  -14875.00000     98.325684
    2419           0      1326.660767   1491.003174  -15125.00000     97.123543
    2420           0      1326.660767   1491.003174  -15375.00000     95.878891
    2421           0      1326.660767   1491.003174  -15625.00000     94.726418
    2422           0      1326.660767   1491.003174  -15875.00000     93.531868
    2423           0      1326.660767   1491.003174  -16125.00000     92.392769
    2424           0      1326.660767   1491.003174  -16375.00000     91.233543
    2425           0      1326.660767   1491.003174  -16625.00000     90.096786
    2426           0      1326.660767   1491.003174  -16875.00000     88.942703
    2427           0      1326.660767   1491.003174  -17125.00000     87.782784
    2428           0      1326.660767   1491.003174  -17375.00000     86.593590
    2429           0      1326.660767   1491.003174  -17625.00000     85.370773
    2430           0      1326.660767   1491.003174  -17875.00000     84.098656
    2431           0      1326.660767   1491.003174  -18125.00000     82.766594
    2432           0      1326.660767   1491.003174  -18375.00000     81.362732
    2433           0      1326.660767   1491.003174  -18625.00000     79.877029
    2434           0      1326.660767   1491.003174  -18875.00000     78.297600
    2435           0      1326.660767   1491.003174  -19125.00000     76.618507
    2436           0      1326.660767   1491.003174  -19375.00000     74.834312
    2437           0      1326.660767   1491.003174  -19625.00000     72.934059
    2438           0      1326.660767   1491.003174  -19875.00000     70.919998
    2439           0      1326.660767   1491.003174  -20125.00000     68.787758
    2440           0      1326.660767   1491.003174  -20375.00000     66.537941
    2441           0      1326.660767   1491.003174  -20625.00000     64.175354
    2442           0      1326.660767   1491.003174  -20875.00000     61.701797
    2443           0      1326.660767   1491.003174  -21125.00000     59.129204
    2444           0      1326.660767   1491.003174  -21375.00000     56.461369
    2445           0      1326.660767   1491.003174  -21625.00000     53.718140
    2446           0      1326.660767   1491.003174  -21875.00000     50.903862
    2447           0      1326.660767   1491.003174  -22125.00000     48.047474
    2448           0      1326.660767   1491.003174  -22375.00000     45.151703
    2449           0      1326.660767   1491.003174  -22625.00000     42.256287
    2450           0      1326.660767   1491.003174  -22875.00000     39.360081
    2451           0      1326.660767   1491.003174  -23125.00000     36.516487
    2452           0      1326.660767   1491.003174  -23375.00000     33.720829
    2453           0      1326.660767   1491.003174  -23625.00000     31.043375
    2454           0      1326.660767   1491.003174  -23875.00000     28.486486
    2455           0      1326.660767   1491.003174  -24125.00000     26.132042
    2456           0      1326.660767   1491.003174  -24375.00000     24.031025
    2457           0      1326.660767   1491.003174  -24625.00000     22.223557
    2458           0      1326.660767   1491.003174  -24875.00000     20.921583
    2459           0      1326.660767   1491.003174  -25125.00000     19.953608
    2460           0      1326.660767   1491.003174  -25375.00000     19.838469
    2461           0      1326.660767   1491.003174  -25625.00000     19.690765
    2462           0      1326.660767   1491.003174  -25875.00000     21.140650
    2463           0      1237.979248   1565.415771  -13625.00000    102.286171
    2464           0      1237.979248   1565.415771  -13875.00000    105.371124
    2465           0      1237.979248   1565.415771  -14125.00000    105.659348
    2466           0      1237.979248   1565.415771  -14375.00000    103.443413
    2467           0      1237.979248   1565.415771  -14625.00000    102.266655
    2468           0      1237.979248   1565.415771  -14875.00000    100.988159
    2469           0      1237.979248   1565.415771  -15125.00000     99.722633
    2470           0      1237.979248   1565.415771  -15375.00000     98.477066
    2471           0      1237.979248   1565.415771  -15625.00000     97.282631
    2472           0      1237.979248   1565.415771  -15875.00000     96.077454
    2473           0      1237.979248   1565.415771  -16125.00000     94.913399
    2474           0      1237.979248   1565.415771  -16375.00000     93.737617
    2475           0      1237.979248   1565.415771  -16625.00000     92.581604
    2476           0      1237.979248   1565.415771  -16875.00000     91.406715
    2477           0      1237.979248   1565.415771  -17125.00000     90.226402
    2478           0      1237.979248   1565.415771  -17375.00000     89.010185
    2479           0      1237.979248   1565.415771  -17625.00000     87.759247
    2480           0      1237.979248   1565.415771  -17875.00000     86.448692
    2481           0      1237.979248   1565.415771  -18125.00000     85.073219
    2482           0      1237.979248   1565.415771  -18375.00000     83.613174
    2483           0      1237.979248   1565.415771  -18625.00000     82.061195
    2484           0      1237.979248   1565.415771  -18875.00000     80.402946
    2485           0      1237.979248   1565.415771  -19125.00000     78.633156
    2486           0      1237.979248   1565.415771  -19375.00000     76.741455
    2487           0      1237.979248   1565.415771  -19625.00000     74.726517
    2488           0      1237.979248   1565.415771  -19875.00000     72.580467
    2489           0      1237.979248   1565.415771  -20125.00000     70.308884
    2490           0      1237.979248   1565.415771  -20375.00000     67.907188
    2491           0      1237.979248   1565.415771  -20625.00000     65.386215
    2492           0      1237.979248   1565.415771  -20875.00000     62.744156
    2493           0      1237.979248   1565.415771  -21125.00000     59.999645
    2494           0      1237.979248   1565.415771  -21375.00000     57.150383
    2495           0      1237.979248   1565.415771  -21625.00000     54.226219
    2496           0      1237.979248   1565.415771  -21875.00000     51.219414
    2497           0      1237.979248   1565.415771  -22125.00000     48.176102
    2498           0      1237.979248   1565.415771  -22375.00000     45.074650
    2499           0      1237.979248   1565.415771  -22625.00000     41.986977
    2500           0      1237.979248   1565.415771  -22875.00000     38.863350
    2501           0      1237.979248   1565.415771  -23125.00000     35.820332
    2502           0      1237.979248   1565.415771  -23375.00000     32.757545
    2503           0      1237.979248   1565.415771  -23625.00000     29.873604
    2504           0      1237.979248   1565.415771  -23875.00000     26.982426
    2505           0      1237.979248   1565.415771  -24125.00000     24.434195
    2506           0      1237.979248   1565.415771  -24375.00000     21.904205
    2507           0      1237.979248   1565.415771  -24625.00000     20.000395
    2508           0      1237.979248   1565.415771  -24875.00000     18.196510
    2509           0      1237.979248   1565.415771  -25125.00000     17.394424
    2510           0      1237.979248   1565.415771  -25375.00000     16.854895
    2511           0      1237.979248   1565.415771  -25625.00000     17.656265
    2512           0      1237.979248   1565.415771  -25875.00000     18.270544
    2513           0      1142.787476   1632.069824  -13625.00000    105.676193
    2514           0      1142.787476   1632.069824  -13875.00000    114.239952
    2515           0      1142.787476   1632.069824  -14125.00000    110.564034
    2516           0      1142.787476   1632.069824  -14375.00000    108.928741
    2517           0      1142.787476   1632.069824  -14625.00000    107.436592
    2518           0      1142.787476   1632.069824  -14875.00000    105.946579
    2519           0      1142.787476   1632.069824  -15125.00000    104.348175
    2520           0      1142.787476   1632.069824  -15375.00000    102.953369
    2521           0      1142.787476   1632.069824  -15625.00000    101.439423
    2522           0      1142.787476   1632.069824  -15875.00000    100.057877
    2523           0      1142.787476   1632.069824  -16125.00000     98.611938
    2524           0      1142.787476   1632.069824  -16375.00000     97.236855
    2525           0      1142.787476   1632.069824  -16625.00000     95.822365
    2526           0      1142.787476   1632.069824  -16875.00000     94.436127
    2527           0      1142.787476   1632.069824  -17125.00000     93.013901
    2528           0      1142.787476   1632.069824  -17375.00000     91.585350
    2529           0      1142.787476   1632.069824  -17625.00000     90.110275
    2530           0      1142.787476   1632.069824  -17875.00000     88.597839
    2531           0      1142.787476   1632.069824  -18125.00000     87.020943
    2532           0      1142.787476   1632.069824  -18375.00000     85.379105
    2533           0      1142.787476   1632.069824  -18625.00000     83.652626
    2534           0      1142.787476   1632.069824  -18875.00000     81.839905
    2535           0      1142.787476   1632.069824  -19125.00000     79.925240
    2536           0      1142.787476   1632.069824  -19375.00000     77.907013
    2537           0      1142.787354   1632.069824  -19625.00000     75.778038
    2538           0      1142.787354   1632.069824  -19875.00000     73.537109
    2539           0      1142.787354   1632.069824  -20125.00000     71.180046
    2540           0      1142.787354   1632.069824  -20375.00000     68.713356
    2541           0      1142.787354   1632.069824  -20625.00000     66.133163
    2542           0      1142.787354   1632.069824  -20875.00000     63.453255
    2543           0      1142.787354   1632.069824  -21125.00000     60.669739
    2544           0      1142.787354   1632.069824  -21375.00000     57.805229
    2545           0      1142.787354   1632.069824  -21625.00000     54.852150
    2546           0      1142.787354   1632.069824  -21875.00000     51.845543
    2547           0      1142.787354   1632.069824  -22125.00000     48.768055
    2548           0      1142.787354   1632.069824  -22375.00000     45.673313
    2549           0      1142.787354   1632.069824  -22625.00000     42.524582
    2550           0      1142.787354   1632.069824  -22875.00000     39.405300
    2551           0      1142.787354   1632.069824  -23125.00000     36.244694
    2552           0      1142.787354   1632.069824  -23375.00000     33.176582
    2553           0      1142.787354   1632.069824  -23625.00000     30.075493
    2554           0      1142.787354   1632.069824  -23875.00000     27.161045
    2555           0      1142.787354   1632.069824  -24125.00000     24.228937
    2556           0      1142.787354   1632.069824  -24375.00000     21.636906
    2557           0      1142.787354   1632.069824  -24625.00000     19.095001
    2558           0      1142.787354   1632.069824  -24875.00000     17.129637
    2559           0      1142.787354   1632.069824  -25125.00000     15.468940
    2560           0      1142.787354   1632.069824  -25375.00000     14.594809
    2561           0      1142.787354   1632.069824  -25625.00000     14.608447
    2562           0      1142.787476   1632.069824  -25875.00000     14.774619
    2563           0      1047.595825   1698.723877  -13625.00000    116.342705
    2564           0      1047.595825   1698.723877  -13875.00000    113.297676
    2565           0      1047.595825   1698.723877  -14125.00000    115.412819
    2566           0      1047.595825   1698.723877  -14375.00000    112.131248
    2567           0      1047.595825   1698.723877  -14625.00000    110.570511
    2568           0      1047.595825   1698.723877  -14875.00000    108.674164
    2569           0      1047.595825   1698.723877  -15125.00000    106.996445
    2570           0      1047.595825   1698.723877  -15375.00000    105.180725
    2571           0      1047.595825   1698.723877  -15625.00000    103.539124
    2572           0      1047.595825   1698.723877  -15875.00000    101.816116
    2573           0      1047.595825   1698.723877  -16125.00000    100.189377
    2574           0      1047.595825   1698.723877  -16375.00000     98.526573
    2575           0      1047.595825   1698.723877  -16625.00000     96.909348
    2576           0      1047.595825   1698.723877  -16875.00000     95.271339
    2577           0      1047.595825   1698.723877  -17125.00000     93.646095
    2578           0      1047.595825   1698.723877  -17375.00000     91.997940
    2579           0      1047.595825   1698.723877  -17625.00000     90.336227
    2580           0      1047.595825   1698.723877  -17875.00000     88.638687
    2581           0      1047.595825   1698.723877  -18125.00000     86.902779
    2582           0      1047.595825   1698.723877  -18375.00000     85.111977
    2583           0      1047.595825   1698.723877  -18625.00000     83.258896
    2584           0      1047.595825   1698.723877  -18875.00000     81.330917
    2585           0      1047.595825   1698.723877  -19125.00000     79.319229
    2586           0      1047.595825   1698.723877  -19375.00000     77.214584
    2587           0      1047.595825   1698.723877  -19625.00000     75.012749
    2588           0      1047.595703   1698.723877  -19875.00000     72.706810
    2589           0      1047.595703   1698.723877  -20125.00000     70.296570
    2590           0      1047.595703   1698.723877  -20375.00000     67.779381
    2591           0      1047.595703   1698.723877  -20625.00000     65.161034
    2592           0      1047.595703   1698.723877  -20875.00000     62.440914
    2593           0      1047.595703   1698.723877  -21125.00000     59.631767
    2594           0      1047.595703   1698.723877  -21375.00000     56.733032
    2595           0      1047.595703   1698.723877  -21625.00000     53.764797
    2596           0      1047.595703   1698.723877  -21875.00000     50.723358
    2597           0      1047.595703   1698.723877  -22125.00000     47.637432
    2598           0      1047.595703   1698.723877  -22375.00000     44.495762
    2599           0      1047.595703   1698.723877  -22625.00000     41.338696
    2600           0      1047.595703   1698.723877  -22875.00000     38.142296
    2601           0      1047.595703   1698.723877  -23125.00000     34.964531
    2602           0      1047.595703   1698.723877  -23375.00000     31.764202
    2603           0      1047.595703   1698.723877  -23625.00000     28.625963
    2604           0      1047.595703   1698.723877  -23875.00000     25.492537
    2605           0      1047.595703   1698.723877  -24125.00000     22.483191
    2606           0      1047.595703   1698.723877  -24375.00000     19.553108
    2607           0      1047.595703   1698.723877  -24625.00000     16.842726
    2608           0      1047.595703   1698.723877  -24875.00000     14.439820
    2609           0      1047.595703   1698.723877  -25125.00000     12.454253
    2610           0      1047.595703   1698.723877  -25375.00000     11.317482
    2611           0      1047.595703   1698.723877  -25625.00000     10.634929
    2612           0      1047.595825   1698.723877  -25875.00000     11.950438
    2613           0       947.339905   1756.606445  -13625.00000    118.034874
    2614           0       947.339905   1756.606445  -13875.00000    119.761971
    2615           0       947.339905   1756.606445  -14125.00000    120.039696
    2616           0       947.339905   1756.606445  -14375.00000    116.578697
    2617           0       947.339905   1756.606445  -14625.00000    114.696007
    2618           0       947.339905   1756.606445  -14875.00000    112.516777
    2619           0       947.339905   1756.606445  -15125.00000    110.472870
    2620           0       947.339905   1756.606445  -15375.00000    108.373230
    2621           0       947.339905   1756.606445  -15625.00000    106.401276
    2622           0       947.339905   1756.606445  -15875.00000    104.375938
    2623           0       947.339905   1756.606445  -16125.00000    102.444023
    2624           0       947.339905   1756.606445  -16375.00000    100.480080
    2625           0       947.339905   1756.606445  -16625.00000     98.575180
    2626           0       947.339905   1756.606445  -16875.00000     96.649124
    2627           0       947.339905   1756.606445  -17125.00000     94.755379
    2628           0       947.339905   1756.606445  -17375.00000     92.841713
    2629           0       947.339905   1756.606445  -17625.00000     90.937019
    2630           0       947.339905   1756.606445  -17875.00000     89.005379
    2631           0       947.339905   1756.606445  -18125.00000     87.059723
    2632           0       947.339905   1756.606445  -18375.00000     85.073654
    2633           0       947.339905   1756.606445  -18625.00000     83.050484
    2634           0       947.339905   1756.606445  -18875.00000     80.970078
    2635           0       947.339905   1756.606445  -19125.00000     78.831055
    2636           0       947.339905   1756.606445  -19375.00000     76.618637
    2637           0       947.339905   1756.606445  -19625.00000     74.331772
    2638           0       947.339905   1756.606445  -19875.00000     71.960205
    2639           0       947.339905   1756.606445  -20125.00000     69.504944
    2640           0       947.339905   1756.606445  -20375.00000     66.960594
    2641           0       947.339905   1756.606445  -20625.00000     64.332420
    2642           0       947.339905   1756.606445  -20875.00000     61.618374
    2643           0       947.339905   1756.606445  -21125.00000     58.829021
    2644           0       947.339905   1756.606445  -21375.00000     55.962872
    2645           0       947.339905   1756.606445  -21625.00000     53.037193
    2646           0       947.339905   1756.606445  -21875.00000     50.046429
    2647           0       947.339905   1756.606445  -22125.00000     47.017529
    2648           0       947.339905   1756.606445  -22375.00000     43.933685
    2649           0       947.339905   1756.606445  -22625.00000     40.838657
    2650           0       947.339905   1756.606445  -22875.00000     37.692814
    2651           0       947.339905   1756.606445  -23125.00000     34.572201
    2652           0       947.339905   1756.606445  -23375.00000     31.394224
    2653           0       947.339905   1756.606445  -23625.00000     28.298368
    2654           0       947.339905   1756.606445  -23875.00000     25.121469
    2655           0       947.339905   1756.606445  -24125.00000     22.127640
    2656           0       947.339905   1756.606445  -24375.00000     19.002861
    2657           0       947.339905   1756.606445  -24625.00000     16.257456
    2658           0       947.339905   1756.606445  -24875.00000     13.313951
    2659           0       947.339905   1756.606445  -25125.00000     11.162601
    2660           0       947.339905   1756.606445  -25375.00000      8.879891
    2661           0       947.339905   1756.606445  -25625.00000      8.201421
    2662           0       947.339905   1756.606445  -25875.00000      8.770586
    2663           0       842.020020   1805.718018  -13625.00000    120.555763
    2664           0       842.020020   1805.718018  -13875.00000    129.676926
    2665           0       842.020020   1805.718018  -14125.00000    124.933640
    2666           0       842.020020   1805.718018  -14375.00000    122.203148
    2667           0       842.020020   1805.718018  -14625.00000    119.748138
    2668           0       842.020020   1805.718018  -14875.00000    117.351944
    2669           0       842.020020   1805.718018  -15125.00000    114.748398
    2670           0       842.020020   1805.718018  -15375.00000    112.459335
    2671           0       842.020020   1805.718018  -15625.00000    109.983498
    2672           0       842.020020   1805.718018  -15875.00000    107.711151
    2673           0       842.020020   1805.718018  -16125.00000    105.344452
    2674           0       842.020020   1805.718018  -16375.00000    103.099106
    2675           0       842.020020   1805.718018  -16625.00000    100.808380
    2676           0       842.020020   1805.718018  -16875.00000     98.590027
    2677           0       842.020020   1805.718018  -17125.00000     96.349190
    2678           0       842.020020   1805.718018  -17375.00000     94.149033
    2679           0       842.020020   1805.718018  -17625.00000     91.933998
    2680           0       842.020020   1805.718018  -17875.00000     89.736397
    2681           0       842.020020   1805.718018  -18125.00000     87.521782
    2682           0       842.020020   1805.718018  -18375.00000     85.305092
    2683           0       842.020020   1805.718018  -18625.00000     83.063194
    2684           0       842.020020   1805.718018  -18875.00000     80.801712
    2685           0       842.020020   1805.718018  -19125.00000     78.504288
    2686           0       842.020020   1805.718018  -19375.00000     76.172379
    2687           0       842.020020   1805.718018  -19625.00000     73.794281
    2688           0       842.020020   1805.718018  -19875.00000     71.370918
    2689           0       842.020020   1805.718018  -20125.00000     68.893990
    2690           0       842.020020   1805.718018  -20375.00000     66.366539
    2691           0       842.020020   1805.718018  -20625.00000     63.782291
    2692           0       842.020020   1805.718018  -20875.00000     61.148518
    2693           0       842.020020   1805.718018  -21125.00000     58.458973
    2694           0       842.020020   1805.718018  -21375.00000     55.726963
    2695           0       842.020020   1805.718018  -21625.00000     52.942944
    2696           0       842.020020   1805.718018  -21875.00000     50.129120
    2697           0       842.020020   1805.718018  -22125.00000     47.267220
    2698           0       842.020020   1805.718018  -22375.00000     44.393898
    2699           0       842.020020   1805.718018  -22625.00000     41.473415
    2700           0       842.020020   1805.718018  -22875.00000     38.567497
    2701           0       842.020020   1805.718018  -23125.00000     35.608528
    2702           0       842.020020   1805.718018  -23375.00000     32.702805
    2703           0       842.020020   1805.718018  -23625.00000     29.726200
    2704           0       842.020020   1805.718018  -23875.00000     26.863935
    2705           0       842.020020   1805.718018  -24125.00000     23.893595
    2706           0       842.020020   1805.718018  -24375.00000     21.138041
    2707           0       842.019897   1805.718018  -24625.00000     18.207352
    2708           0       842.019897   1805.718018  -24875.00000     15.670857
    2709           0       842.019897   1805.718018  -25125.00000     12.834389
    2710           0       842.019897   1805.718018  -25375.00000     10.768853
    2711           0       842.019897   1805.718018  -25625.00000      8.556887
    2712           0       842.020020   1805.718018  -25875.00000      6.024463
    2713           0       736.700073   1854.829468  -13625.00000    132.034851
    2714           0       736.700073   1854.829468  -13875.00000    128.320709
    2715           0       736.700073   1854.829468  -14125.00000    129.828064
    2716           0       736.700073   1854.829468  -14375.00000    125.120552
    2717           0       736.700073   1854.829468  -14625.00000    122.566383
    2718           0       736.700073   1854.829468  -14875.00000    119.489899
    2719           0       736.700073   1854.829468  -15125.00000    116.745621
    2720           0       736.700073   1854.829468  -15375.00000    113.787552
    2721           0       736.700073   1854.829468  -15625.00000    111.069725
    2722           0       736.700073   1854.829468  -15875.00000    108.231110
    2723           0       736.700073   1854.829468  -16125.00000    105.533791
    2724           0       736.700073   1854.829468  -16375.00000    102.786224
    2725           0       736.700073   1854.829468  -16625.00000    100.121666
    2726           0       736.700073   1854.829468  -16875.00000     97.441185
    2727           0       736.700073   1854.829468  -17125.00000     94.812347
    2728           0       736.700073   1854.829468  -17375.00000     92.183167
    2729           0       736.700073   1854.829468  -17625.00000     89.587692
    2730           0       736.700073   1854.829468  -17875.00000     86.997856
    2731           0       736.700073   1854.829468  -18125.00000     84.430275
    2732           0       736.700073   1854.829468  -18375.00000     81.868805
    2733           0       736.700073   1854.829468  -18625.00000     79.320755
    2734           0       736.700073   1854.829468  -18875.00000     76.775764
    2735           0       736.700073   1854.829468  -19125.00000     74.236313
    2736           0       736.700073   1854.829468  -19375.00000     71.694664
    2737           0       736.700073   1854.829468  -19625.00000     69.151215
    2738           0       736.700073   1854.829468  -19875.00000     66.599533
    2739           0       736.700073   1854.829468  -20125.00000     64.040047
    2740           0       736.700073   1854.829468  -20375.00000     61.466919
    2741           0       736.700073   1854.829468  -20625.00000     58.882004
    2742           0       736.700073   1854.829468  -20875.00000     56.279278
    2743           0       736.700073   1854.829468  -21125.00000     53.663628
    2744           0       736.700073   1854.829468  -21375.00000     51.027470
    2745           0       736.700073   1854.829468  -21625.00000     48.380512
    2746           0       736.700073   1854.829468  -21875.00000     45.711395
    2747           0       736.700073   1854.829468  -22125.00000     43.037495
    2748           0       736.700073   1854.829468  -22375.00000     40.340073
    2749           0       736.700073   1854.829468  -22625.00000     37.648949
    2750           0       736.700073   1854.829468  -22875.00000     34.932152
    2751           0       736.700073   1854.829468  -23125.00000     32.239799
    2752           0       736.700073   1854.829468  -23375.00000     29.517099
    2753           0       736.700073   1854.829468  -23625.00000     26.846743
    2754           0       736.700073   1854.829468  -23875.00000     24.136139
    2755           0       736.700073   1854.829468  -24125.00000     21.518398
    2756           0       736.700073   1854.829468  -24375.00000     18.842752
    2757           0       736.700073   1854.829468  -24625.00000     16.315693
    2758           0       736.700073   1854.829468  -24875.00000     13.703125
    2759           0       736.700073   1854.829468  -25125.00000     11.313346
    2760           0       736.700073   1854.829468  -25375.00000      8.864072
    2761           0       736.700073   1854.829468  -25625.00000      6.428046
    2762           0       736.700073   1854.829468  -25875.00000      4.229364
    2763           0       627.916199   1894.423584  -13625.00000    133.713684
    2764           0       627.916199   1894.423584  -13875.00000    133.223938
    2765           0       627.916199   1894.423584  -14125.00000    133.363739
    2766           0       627.916199   1894.423584  -14375.00000    128.396317
    2767           0       627.916199   1894.423584  -14625.00000    125.498993
    2768           0       627.916199   1894.423584  -14875.00000    122.109879
    2769           0       627.916199   1894.423584  -15125.00000    118.981651
    2770           0       627.916199   1894.423584  -15375.00000    115.704323
    2771           0       627.916199   1894.423584  -15625.00000    112.629379
    2772           0       627.916199   1894.423584  -15875.00000    109.454948
    2773           0       627.916199   1894.423584  -16125.00000    106.418999
    2774           0       627.916199   1894.423584  -16375.00000    103.336258
    2775           0       627.916199   1894.423584  -16625.00000    100.346741
    2776           0       627.916199   1894.423584  -16875.00000     97.342163
    2777           0       627.916199   1894.423584  -17125.00000     94.404289
    2778           0       627.916199   1894.423584  -17375.00000     91.469955
    2779           0       627.916199   1894.423584  -17625.00000     88.587173
    2780           0       627.916199   1894.423584  -17875.00000     85.719170
    2781           0       627.916199   1894.423584  -18125.00000     82.894188
    2782           0       627.916199   1894.423584  -18375.00000     80.090630
    2783           0       627.916199   1894.423584  -18625.00000     77.324837
    2784           0       627.916199   1894.423584  -18875.00000     74.583664
    2785           0       627.916199   1894.423584  -19125.00000     71.876053
    2786           0       627.916199   1894.423584  -19375.00000     69.193207
    2787           0       627.916199   1894.423584  -19625.00000     66.539505
    2788           0       627.916199   1894.423584  -19875.00000     63.908310
    2789           0       627.916199   1894.423584  -20125.00000     61.301556
    2790           0       627.916199   1894.423584  -20375.00000     58.713551
    2791           0       627.916199   1894.423584  -20625.00000     56.145264
    2792           0       627.916199   1894.423584  -20875.00000     53.591030
    2793           0       627.916199   1894.423584  -21125.00000     51.052589
    2794           0       627.916199   1894.423584  -21375.00000     48.523212
    2795           0       627.916199   1894.423584  -21625.00000     46.007595
    2796           0       627.916199   1894.423584  -21875.00000     43.495987
    2797           0       627.916199   1894.423584  -22125.00000     40.999512
    2798           0       627.916199   1894.423584  -22375.00000     38.501743
    2799           0       627.916199   1894.423584  -22625.00000     36.026218
    2800           0       627.916199   1894.423584  -22875.00000     33.542522
    2801           0       627.916199   1894.423584  -23125.00000     31.097441
    2802           0       627.916199   1894.423584  -23375.00000     28.632084
    2803           0       627.916199   1894.423584  -23625.00000     26.236538
    2804           0       627.916199   1894.423584  -23875.00000     23.795212
    2805           0       627.916199   1894.423584  -24125.00000     21.480173
    2806           0       627.916199   1894.423584  -24375.00000     19.063496
    2807           0       627.916199   1894.423584  -24625.00000     16.876209
    2808           0       627.916199   1894.423584  -24875.00000     14.476717
    2809           0       627.916199   1894.423584  -25125.00000     12.441063
    2810           0       627.916199   1894.423584  -25375.00000     10.201695
    2811           0       627.916199   1894.423584  -25625.00000      7.947259
    2812           0       627.916199   1894.423584  -25875.00000      6.228171
    2813           0       515.668213   1924.500366  -13625.00000    132.363235
    2814           0       515.668213   1924.500366  -13875.00000    141.696228
    2815           0       515.668213   1924.500366  -14125.00000    135.835251
    2816           0       515.668213   1924.500366  -14375.00000    131.994995
    2817           0       515.668213   1924.500366  -14625.00000    128.486435
    2818           0       515.668213   1924.500366  -14875.00000    125.091209
    2819           0       515.668213   1924.500366  -15125.00000    121.391876
    2820           0       515.668213   1924.500366  -15375.00000    118.092743
    2821           0       515.668213   1924.500366  -15625.00000    114.545982
    2822           0       515.668213   1924.500366  -15875.00000    111.255814
    2823           0       515.668213   1924.500366  -16125.00000    107.845474
    2824           0       515.668213   1924.500366  -16375.00000    104.595039
    2825           0       515.668213   1924.500366  -16625.00000    101.296074
    2826           0       515.668213   1924.500366  -16875.00000     98.104927
    2827           0       515.668213   1924.500366  -17125.00000     94.905525
    2828           0       515.668213   1924.500366  -17375.00000     91.786064
    2829           0       515.668213   1924.500366  -17625.00000     88.681931
    2830           0       515.668213   1924.500366  -17875.00000     85.643364
    2831           0       515.668213   1924.500366  -18125.00000     82.634430
    2832           0       515.668213   1924.500366  -18375.00000     79.684097
    2833           0       515.668213   1924.500366  -18625.00000     76.772171
    2834           0       515.668213   1924.500366  -18875.00000     73.915436
    2835           0       515.668213   1924.500366  -19125.00000     71.101997
    2836           0       515.668213   1924.500366  -19375.00000     68.341461
    2837           0       515.668213   1924.500366  -19625.00000     65.625977
    2838           0       515.668213   1924.500366  -19875.00000     62.960922
    2839           0       515.668152   1924.500366  -20125.00000     60.339951
    2840           0       515.668152   1924.500366  -20375.00000     57.766457
    2841           0       515.668152   1924.500366  -20625.00000     55.233795
    2842           0       515.668152   1924.500366  -20875.00000     52.745327
    2843           0       515.668152   1924.500366  -21125.00000     50.292587
    2844           0       515.668152   1924.500366  -21375.00000     47.881363
    2845           0       515.668152   1924.500366  -21625.00000     45.499275
    2846           0       515.668152   1924.500366  -21875.00000     43.158070
    2847           0       515.668152   1924.500366  -22125.00000     40.837822
    2848           0       515.668152   1924.500366  -22375.00000     38.562077
    2849           0       515.668152   1924.500366  -22625.00000     36.296574
    2850           0       515.668152   1924.500366  -22875.00000     34.086571
    2851           0       515.668152   1924.500366  -23125.00000     31.870798
    2852           0       515.668152   1924.500366  -23375.00000     29.733778
    2853           0       515.668152   1924.500366  -23625.00000     27.563822
    2854           0       515.668152   1924.500366  -23875.00000     25.516016
    2855           0       515.668152   1924.500366  -24125.00000     23.386324
    2856           0       515.668152   1924.500366  -24375.00000     21.456581
    2857           0       515.668152   1924.500366  -24625.00000     19.350222
    2858           0       515.668152   1924.500366  -24875.00000     17.610195
    2859           0       515.668152   1924.500366  -25125.00000     15.410215
    2860           0       515.668152   1924.500366  -25375.00000     14.098965
    2861           0       515.668152   1924.500366  -25625.00000     11.939277
    2862           0       515.668152   1924.500366  -25875.00000      8.521113
    2863           0       403.420227   1954.577148  -13625.00000    141.544693
    2864           0       403.420227   1954.577148  -13875.00000    137.772537
    2865           0       403.420227   1954.577148  -14125.00000    138.484360
    2866           0       403.420227   1954.577148  -14375.00000    132.692596
    2867           0       403.420227   1954.577148  -14625.00000    129.260925
    2868           0       403.420227   1954.577148  -14875.00000    125.228607
    2869           0       403.420227   1954.577148  -15125.00000    121.557022
    2870           0       403.420227   1954.577148  -15375.00000    117.653976
    2871           0       403.420227   1954.577148  -15625.00000    114.017014
    2872           0       403.420227   1954.577148  -15875.00000    110.249855
    2873           0       403.420227   1954.577148  -16125.00000    106.652893
    2874           0       403.420227   1954.577148  -16375.00000    103.007584
    2875           0       403.420227   1954.577148  -16625.00000     99.476616
    2876           0       403.420227   1954.577148  -16875.00000     95.943481
    2877           0       403.420227   1954.577148  -17125.00000     92.497253
    2878           0       403.420227   1954.577148  -17375.00000     89.075630
    2879           0       403.420227   1954.577148  -17625.00000     85.728439
    2880           0       403.420227   1954.577148  -17875.00000     82.422646
    2881           0       403.420227   1954.577148  -18125.00000     79.186874
    2882           0       403.420227   1954.577148  -18375.00000     76.003906
    2883           0       403.420227   1954.577148  -18625.00000     72.890694
    2884           0       403.420227   1954.577148  -18875.00000     69.838371
    2885           0       403.420227   1954.577148  -19125.00000     66.857201
    2886           0       403.420227   1954.577148  -19375.00000     63.942345
    2887           0       403.420227   1954.577148  -19625.00000     61.100098
    2888           0       403.420227   1954.577148  -19875.00000     58.326958
    2889           0       403.420197   1954.577148  -20125.00000     55.626846
    2890           0       403.420197   1954.577148  -20375.00000     52.996002
    2891           0       403.420197   1954.577148  -20625.00000     50.437225
    2892           0       403.420197   1954.577148  -20875.00000     47.945309
    2893           0       403.420197   1954.577148  -21125.00000     45.523464
    2894           0       403.420197   1954.577148  -21375.00000     43.163837
    2895           0       403.420197   1954.577148  -21625.00000     40.872227
    2896           0       403.420197   1954.577148  -21875.00000     38.636215
    2897           0       403.420197   1954.577148  -22125.00000     36.467564
    2898           0       403.420197   1954.577148  -22375.00000     34.345818
    2899           0       403.420197   1954.577148  -22625.00000     32.294155
    2900           0       403.420197   1954.577148  -22875.00000     30.277430
    2901           0       403.420197   1954.577148  -23125.00000     28.339529
    2902           0       403.420197   1954.577148  -23375.00000     26.418535
    2903           0       403.420197   1954.577148  -23625.00000     24.595240
    2904           0       403.420197   1954.577148  -23875.00000     22.759331
    2905           0       403.420197   1954.577148  -24125.00000     21.057245
    2906           0       403.420197   1954.577148  -24375.00000     19.291143
    2907           0       403.420197   1954.577148  -24625.00000     17.727943
    2908           0       403.420197   1954.577148  -24875.00000     16.005152
    2909           0       403.420197   1954.577148  -25125.00000     14.582755
    2910           0       403.420197   1954.577148  -25375.00000     13.061065
    2911           0       403.420197   1954.577148  -25625.00000     11.167394
    2912           0       403.420197   1954.577148  -25875.00000     10.332276
    2913           0       289.413513   1974.679565  -13625.00000    142.097977
    2914           0       289.413513   1974.679565  -13875.00000    139.418457
    2915           0       289.413513   1974.679565  -14125.00000    139.595123
    2916           0       289.413513   1974.679565  -14375.00000    133.639191
    2917           0       289.413513   1974.679565  -14625.00000    130.021088
    2918           0       289.413513   1974.679565  -14875.00000    125.812782
    2919           0       289.413513   1974.679565  -15125.00000    121.938683
    2920           0       289.413513   1974.679565  -15375.00000    117.858459
    2921           0       289.413513   1974.679565  -15625.00000    114.032547
    2922           0       289.413513   1974.679565  -15875.00000    110.086777
    2923           0       289.413513   1974.679565  -16125.00000    106.313759
    2924           0       289.413513   1974.679565  -16375.00000    102.497505
    2925           0       289.413513   1974.679565  -16625.00000     98.803917
    2926           0       289.413513   1974.679565  -16875.00000     95.113258
    2927           0       289.413513   1974.679565  -17125.00000     91.520172
    2928           0       289.413513   1974.679565  -17375.00000     87.958344
    2929           0       289.413513   1974.679565  -17625.00000     84.482651
    2930           0       289.413513   1974.679565  -17875.00000     81.056694
    2931           0       289.413513   1974.679565  -18125.00000     77.712891
    2932           0       289.413513   1974.679565  -18375.00000     74.431625
    2933           0       289.413513   1974.679565  -18625.00000     71.232491
    2934           0       289.413513   1974.679565  -18875.00000     68.105087
    2935           0       289.413513   1974.679565  -19125.00000     65.061455
    2936           0       289.413513   1974.679565  -19375.00000     62.096035
    2937           0       289.413513   1974.679565  -19625.00000     59.216259
    2938           0       289.413513   1974.679565  -19875.00000     56.418583
    2939           0       289.413513   1974.679565  -20125.00000     53.707657
    2940           0       289.413513   1974.679565  -20375.00000     51.080280
    2941           0       289.413513   1974.679565  -20625.00000     48.539452
    2942           0       289.413513   1974.679565  -20875.00000     46.081192
    2943           0       289.413513   1974.679565  -21125.00000     43.708187
    2944           0       289.413513   1974.679565  -21375.00000     41.414505
    2945           0       289.413513   1974.679565  -21625.00000     39.204235
    2946           0       289.413513   1974.679565  -21875.00000     37.067806
    2947           0       289.413513   1974.679565  -22125.00000     35.013393
    2948           0       289.413513   1974.679565  -22375.00000     33.024799
    2949           0       289.413513   1974.679565  -22625.00000     31.118708
    2950           0       289.413513   1974.679565  -22875.00000     29.266642
    2951           0       289.413513   1974.679565  -23125.00000     27.501696
    2952           0       289.413513   1974.679565  -23375.00000     25.772741
    2953           0       289.413544   1974.679565  -23625.00000     24.143393
    2954           0       289.413544   1974.679565  -23875.00000     22.521086
    2955           0       289.413544   1974.679565  -24125.00000     21.025721
    2956           0       289.413544   1974.679565  -24375.00000     19.487867
    2957           0       289.413544   1974.679565  -24625.00000     18.133078
    2958           0       289.413544   1974.679565  -24875.00000     16.657700
    2959           0       289.413544   1974.679565  -25125.00000     15.395488
    2960           0       289.413544   1974.679565  -25375.00000     14.186849
    2961           0       289.413544   1974.679565  -25625.00000     12.523143
    2962           0       289.413513   1974.679565  -25875.00000     11.006558
    2963           0       173.648041   1984.807617  -13625.00000    136.459686
    2964           0       173.648041   1984.807617  -13875.00000    145.689224
    2965           0       173.648041   1984.807617  -14125.00000    139.253387
    2966           0       173.648041   1984.807617  -14375.00000    134.816635
    2967           0       173.648041   1984.807617  -14625.00000    130.727295
    2968           0       173.648041   1984.807617  -14875.00000    126.773033
    2969           0       173.648041   1984.807617  -15125.00000    122.474991
    2970           0       173.648041   1984.807617  -15375.00000    118.611900
    2971           0       173.648041   1984.807617  -15625.00000    114.481583
    2972           0       173.648041   1984.807617  -15875.00000    110.633461
    2973           0       173.648056   1984.807617  -16125.00000    106.663010
    2974           0       173.648056   1984.807617  -16375.00000    102.875824
    2975           0       173.648056   1984.807617  -16625.00000     99.049553
    2976           0       173.648056   1984.807617  -16875.00000     95.355766
    2977           0       173.648056   1984.807617  -17125.00000     91.671631
    2978           0       173.648056   1984.807617  -17375.00000     88.094650
    2979           0       173.648056   1984.807617  -17625.00000     84.557152
    2980           0       173.648056   1984.807617  -17875.00000     81.115265
    2981           0       173.648056   1984.807617  -18125.00000     77.731934
    2982           0       173.648056   1984.807617  -18375.00000     74.440018
    2983           0       173.648056   1984.807617  -18625.00000     71.219376
    2984           0       173.648056   1984.807617  -18875.00000     68.089630
    2985           0       173.648056   1984.807617  -19125.00000     65.039848
    2986           0       173.648056   1984.807617  -19375.00000     62.082169
    2987           0       173.648056   1984.807617  -19625.00000     59.210201
    2988           0       173.648041   1984.807617  -19875.00000     56.431812
    2989           0       173.648041   1984.807617  -20125.00000     53.742653
    2990           0       173.648041   1984.807617  -20375.00000     51.148262
    2991           0       173.648041   1984.807617  -20625.00000     48.644161
    2992           0       173.648041   1984.807617  -20875.00000     46.235500
    2993           0       173.648041   1984.807617  -21125.00000     43.915817
    2994           0       173.648041   1984.807617  -21375.00000     41.691715
    2995           0       173.648041   1984.807617  -21625.00000     39.552414
    2996           0       173.648041   1984.807617  -21875.00000     37.508938
    2997           0       173.648041   1984.807617  -22125.00000     35.542374
    2998           0       173.648041   1984.807617  -22375.00000     33.673244
    2999           0       173.648041   1984.807617  -22625.00000     31.867855
    3000           0       173.648041   1984.807617  -22875.00000     30.165312
    3001           0       173.648041   1984.807617  -23125.00000     28.505192
    3002           0       173.648041   1984.807617  -23375.00000     26.961533
    3003           0       173.648056   1984.807617  -23625.00000     25.425716
    3004           0       173.648056   1984.807617  -23875.00000     24.035925
    3005           0       173.648056   1984.807617  -24125.00000     22.597143
    3006           0       173.648056   1984.807617  -24375.00000     21.363243
    3007           0       173.648056   1984.807617  -24625.00000     19.979691
    3008           0       173.648056   1984.807617  -24875.00000     18.947210
    3009           0       173.648056   1984.807617  -25125.00000     17.454233
    3010           0       173.648056   1984.807617  -25375.00000     16.873138
    3011           0       173.648056   1984.807617  -25625.00000     15.340962
    3012           0       173.648041   1984.807617  -25875.00000     12.534925
    3013           0        57.882576   1994.935791  -13625.00000    142.043335
    3014           0        57.882576   1994.935791  -13875.00000    139.155563
    3015           0        57.882576   1994.935791  -14125.00000    139.175125
    3016           0        57.882576   1994.935791  -14375.00000    133.059021
    3017           0        57.882576   1994.935791  -14625.00000    129.280777
    3018           0        57.882576   1994.935791  -14875.00000    124.908875
    3019           0        57.882576   1994.935791  -15125.00000    120.873764
    3020           0        57.882576   1994.935791  -15375.00000    116.635254
    3021           0        57.882576   1994.935791  -15625.00000    112.654106
    3022           0        57.882576   1994.935791  -15875.00000    108.560104
    3023           0        57.882576   1994.935791  -16125.00000    104.644524
    3024           0        57.882576   1994.935791  -16375.00000    100.695427
    3025           0        57.882576   1994.935791  -16625.00000     96.877335
    3026           0        57.882576   1994.935791  -16875.00000     93.073776
    3027           0        57.882576   1994.935791  -17125.00000     89.378166
    3028           0        57.882576   1994.935791  -17375.00000     85.726532
    3029           0        57.882576   1994.935791  -17625.00000     82.172607
    3030           0        57.882576   1994.935791  -17875.00000     78.681358
    3031           0        57.882576   1994.935791  -18125.00000     75.284042
    3032           0        57.882576   1994.935791  -18375.00000     71.961571
    3033           0        57.882576   1994.935791  -18625.00000     68.732323
    3034           0        57.882576   1994.935791  -18875.00000     65.585899
    3035           0        57.882576   1994.935791  -19125.00000     62.533318
    3036           0        57.882576   1994.935791  -19375.00000     59.568855
    3037           0        57.882568   1994.935791  -19625.00000     56.699398
    3038           0        57.882565   1994.935791  -19875.00000     53.921482
    3039           0        57.882565   1994.935791  -20125.00000     51.240009
    3040           0        57.882565   1994.935791  -20375.00000     48.652058
    3041           0        57.882565   1994.935791  -20625.00000     46.161835
    3042           0        57.882565   1994.935791  -20875.00000     43.765797
    3043           0        57.882565   1994.935791  -21125.00000     41.468563
    3044           0        57.882565   1994.935791  -21375.00000     39.264236
    3045           0        57.882565   1994.935791  -21625.00000     37.159489
    3046           0        57.882565   1994.935791  -21875.00000     35.143532
    3047           0        57.882565   1994.935791  -22125.00000     33.227940
    3048           0        57.882565   1994.935791  -22375.00000     31.392790
    3049           0        57.882565   1994.935791  -22625.00000     29.659883
    3050           0        57.882565   1994.935791  -22875.00000     27.992823
    3051           0        57.882565   1994.935791  -23125.00000     26.433640
    3052           0        57.882565   1994.935791  -23375.00000     24.916130
    3053           0        57.882565   1994.935791  -23625.00000     23.521095
    3054           0        57.882565   1994.935791  -23875.00000     22.128025
    3055           0        57.882565   1994.935791  -24125.00000     20.890665
    3056           0        57.882565   1994.935791  -24375.00000     19.587645
    3057           0        57.882565   1994.935791  -24625.00000     18.514452
    3058           0        57.882565   1994.935791  -24875.00000     17.250996
    3059           0        57.882565   1994.935791  -25125.00000     16.330021
    3060           0        57.882565   1994.935791  -25375.00000     15.293522
    3061           0        57.882565   1994.935791  -25625.00000     13.727019
    3062           0        57.882568   1994.935791  -25875.00000     13.857229
    3063           0       -57.882874   1994.935791  -13625.00000    141.531097
    3064           0       -57.882874   1994.935791  -13875.00000    137.254471
    3065           0       -57.882874   1994.935791  -14125.00000    137.760117
    3066           0       -57.882874   1994.935791  -14375.00000    131.633698
    3067           0       -57.882874   1994.935791  -14625.00000    127.885857
    3068           0       -57.882874   1994.935791  -14875.00000    123.542801
    3069           0       -57.882874   1994.935791  -15125.00000    119.556236
    3070           0       -57.882874   1994.935791  -15375.00000    115.344231
    3071           0       -57.882874   1994.935791  -15625.00000    111.405815
    3072           0       -57.882874   1994.935791  -15875.00000    107.344849
    3073           0       -57.882874   1994.935791  -16125.00000    103.467812
    3074           0       -57.882874   1994.935791  -16375.00000     99.554520
    3075           0       -57.882874   1994.935791  -16625.00000     95.773552
    3076           0       -57.882874   1994.935791  -16875.00000     92.006760
    3077           0       -57.882874   1994.935791  -17125.00000     88.347870
    3078           0       -57.882874   1994.935791  -17375.00000     84.733253
    3079           0       -57.882874   1994.935791  -17625.00000     81.215958
    3080           0       -57.882874   1994.935791  -17875.00000     77.761703
    3081           0       -57.882874   1994.935791  -18125.00000     74.400978
    3082           0       -57.882874   1994.935791  -18375.00000     71.115326
    3083           0       -57.882874   1994.935791  -18625.00000     67.922531
    3084           0       -57.882874   1994.935791  -18875.00000     64.812683
    3085           0       -57.882874   1994.935791  -19125.00000     61.796410
    3086           0       -57.882874   1994.935791  -19375.00000     58.868092
    3087           0       -57.882874   1994.935791  -19625.00000     56.034615
    3088           0       -57.882881   1994.935791  -19875.00000     53.292645
    3089           0       -57.882881   1994.935791  -20125.00000     50.646603
    3090           0       -57.882881   1994.935791  -20375.00000     48.094139
    3091           0       -57.882881   1994.935791  -20625.00000     45.638973
    3092           0       -57.882881   1994.935791  -20875.00000     43.278015
    3093           0       -57.882881   1994.935791  -21125.00000     41.015278
    3094           0       -57.882881   1994.935791  -21375.00000     38.845802
    3095           0       -57.882881   1994.935791  -21625.00000     36.774918
    3096           0       -57.882881   1994.935791  -21875.00000     34.793892
    3097           0       -57.882881   1994.935791  -22125.00000     32.911369
    3098           0       -57.882881   1994.935791  -22375.00000     31.111837
    3099           0       -57.882881   1994.935791  -22625.00000     29.410849
    3100           0       -57.882881   1994.935791  -22875.00000     27.781275
    3101           0       -57.882881   1994.935791  -23125.00000     26.251953
    3102           0       -57.882881   1994.935791  -23375.00000     24.776039
    3103           0       -57.882881   1994.935791  -23625.00000     23.406675
    3104           0       -57.882885   1994.935791  -23875.00000     22.063580
    3105           0       -57.882889   1994.935791  -24125.00000     20.842955
    3106           0       -57.882889   1994.935791  -24375.00000     19.606909
    3107           0       -57.882889   1994.935791  -24625.00000     18.528194
    3108           0       -57.882889   1994.935791  -24875.00000     17.376282
    3109           0       -57.882889   1994.935791  -25125.00000     16.377501
    3110           0       -57.882889   1994.935791  -25375.00000     15.501558
    3111           0       -57.882889   1994.935791  -25625.00000     14.122837
    3112           0       -57.882881   1994.935791  -25875.00000     12.672629
    3113           0      -173.648315   1984.807617  -13625.00000    132.216858
    3114           0      -173.648315   1984.807617  -13875.00000    141.085251
    3115           0      -173.648315   1984.807617  -14125.00000    134.859161
    3116           0      -173.648300   1984.807617  -14375.00000    130.520737
    3117           0      -173.648300   1984.807617  -14625.00000    126.547310
    3118           0      -173.648300   1984.807617  -14875.00000    122.686935
    3119           0      -173.648300   1984.807617  -15125.00000    118.509995
    3120           0      -173.648300   1984.807617  -15375.00000    114.744743
    3121           0      -173.648300   1984.807617  -15625.00000    110.730537
    3122           0      -173.648300   1984.807617  -15875.00000    106.985527
    3123           0      -173.648300   1984.807617  -16125.00000    103.128006
    3124           0      -173.648300   1984.807617  -16375.00000     99.446899
    3125           0      -173.648300   1984.807617  -16625.00000     95.731972
    3126           0      -173.648300   1984.807617  -16875.00000     92.145828
    3127           0      -173.648285   1984.807617  -17125.00000     88.572136
    3128           0      -173.648285   1984.807617  -17375.00000     85.103569
    3129           0      -173.648285   1984.807617  -17625.00000     81.675903
    3130           0      -173.648285   1984.807617  -17875.00000     78.342674
    3131           0      -173.648285   1984.807617  -18125.00000     75.068634
    3132           0      -173.648285   1984.807617  -18375.00000     71.885193
    3133           0      -173.648285   1984.807617  -18625.00000     68.773239
    3134           0      -173.648285   1984.807617  -18875.00000     65.751503
    3135           0      -173.648285   1984.807617  -19125.00000     62.809795
    3136           0      -173.648285   1984.807617  -19375.00000     59.959290
    3137           0      -173.648270   1984.807617  -19625.00000     57.194466
    3138           0      -173.648285   1984.807617  -19875.00000     54.522705
    3139           0      -173.648285   1984.807617  -20125.00000     51.939518
    3140           0      -173.648285   1984.807617  -20375.00000     49.450912
    3141           0      -173.648285   1984.807617  -20625.00000     47.052071
    3142           0      -173.648285   1984.807617  -20875.00000     44.748302
    3143           0      -173.648270   1984.807617  -21125.00000     42.533199
    3144           0      -173.648254   1984.807617  -21375.00000     40.413372
    3145           0      -173.648254   1984.807617  -21625.00000     38.378181
    3146           0      -173.648254   1984.807617  -21875.00000     36.438663
    3147           0      -173.648254   1984.807617  -22125.00000     34.576153
    3148           0      -173.648254   1984.807617  -22375.00000     32.811073
    3149           0      -173.648254   1984.807617  -22625.00000     31.110252
    3150           0      -173.648254   1984.807617  -22875.00000     29.512381
    3151           0      -173.648254   1984.807617  -23125.00000     27.958200
    3152           0      -173.648254   1984.807617  -23375.00000     26.520462
    3153           0      -173.648254   1984.807617  -23625.00000     25.093176
    3154           0      -173.648254   1984.807617  -23875.00000     23.811069
    3155           0      -173.648254   1984.807617  -24125.00000     22.485298
    3156           0      -173.648254   1984.807617  -24375.00000     21.360722
    3157           0      -173.648254   1984.807617  -24625.00000     20.097677
    3158           0      -173.648254   1984.807617  -24875.00000     19.174412
    3159           0      -173.648254   1984.807617  -25125.00000     17.814207
    3160           0      -173.648239   1984.807617  -25375.00000     17.341215
    3161           0      -173.648239   1984.807617  -25625.00000     15.932733
    3162           0      -173.648285   1984.807617  -25875.00000     13.417222
    3163           0      -289.413757   1974.679443  -13625.00000    133.682541
    3164           0      -289.413757   1974.679443  -13875.00000    132.504440
    3165           0      -289.413757   1974.679443  -14125.00000    132.106155
    3166           0      -289.413757   1974.679443  -14375.00000    126.507133
    3167           0      -289.413757   1974.679443  -14625.00000    123.032227
    3168           0      -289.413757   1974.679443  -14875.00000    119.029800
    3169           0      -289.413757   1974.679443  -15125.00000    115.306122
    3170           0      -289.413757   1974.679443  -15375.00000    111.428947
    3171           0      -289.413757   1974.679443  -15625.00000    107.766350
    3172           0      -289.413757   1974.679443  -15875.00000    104.012383
    3173           0      -289.413757   1974.679443  -16125.00000    100.412628
    3174           0      -289.413757   1974.679443  -16375.00000     96.782700
    3175           0      -289.413757   1974.679443  -16625.00000     93.267174
    3176           0      -289.413727   1974.679443  -16875.00000     89.760567
    3177           0      -289.413727   1974.679443  -17125.00000     86.347809
    3178           0      -289.413727   1974.679443  -17375.00000     82.968994
    3179           0      -289.413727   1974.679443  -17625.00000     79.674553
    3180           0      -289.413727   1974.679443  -17875.00000     76.430946
    3181           0      -289.413727   1974.679443  -18125.00000     73.268524
    3182           0      -289.413727   1974.679443  -18375.00000     70.168900
    3183           0      -289.413727   1974.679443  -18625.00000     67.150688
    3184           0      -289.413727   1974.679443  -18875.00000     64.203995
    3185           0      -289.413727   1974.679443  -19125.00000     61.340519
    3186           0      -289.413727   1974.679443  -19375.00000     58.554634
    3187           0      -289.413727   1974.679443  -19625.00000     55.854012
    3188           0      -289.413727   1974.679443  -19875.00000     53.234909
    3189           0      -289.413727   1974.679443  -20125.00000     50.701908
    3190           0      -289.413727   1974.679443  -20375.00000     48.252197
    3191           0      -289.413727   1974.679443  -20625.00000     45.888779
    3192           0      -289.413727   1974.679443  -20875.00000     43.607628
    3193           0      -289.413696   1974.679443  -21125.00000     41.412109
    3194           0      -289.413696   1974.679443  -21375.00000     39.295647
    3195           0      -289.413696   1974.679443  -21625.00000     37.263863
    3196           0      -289.413696   1974.679443  -21875.00000     35.305538
    3197           0      -289.413696   1974.679443  -22125.00000     33.431892
    3198           0      -289.413696   1974.679443  -22375.00000     31.623056
    3199           0      -289.413696   1974.679443  -22625.00000     29.901793
    3200           0      -289.413696   1974.679443  -22875.00000     28.231846
    3201           0      -289.413696   1974.679443  -23125.00000     26.658430
    3202           0      -289.413696   1974.679443  -23375.00000     25.114281
    3203           0      -289.413696   1974.679443  -23625.00000     23.687328
    3204           0      -289.413696   1974.679443  -23875.00000     22.251848
    3205           0      -289.413666   1974.679443  -24125.00000     20.976469
    3206           0      -289.413666   1974.679443  -24375.00000     19.624252
    3207           0      -289.413666   1974.679443  -24625.00000     18.521126
    3208           0      -289.413666   1974.679443  -24875.00000     17.208691
    3209           0      -289.413666   1974.679443  -25125.00000     16.292559
    3210           0      -289.413666   1974.679443  -25375.00000     15.176153
    3211           0      -289.413666   1974.679443  -25625.00000     13.722385
    3212           0      -289.413727   1974.679443  -25875.00000     14.153925
    3213           0      -403.420471   1954.577026  -13625.00000    132.112869
    3214           0      -403.420471   1954.577026  -13875.00000    127.140419
    3215           0      -403.420471   1954.577026  -14125.00000    128.212433
    3216           0      -403.420471   1954.577026  -14375.00000    122.760490
    3217           0      -403.420471   1954.577026  -14625.00000    119.526291
    3218           0      -403.420471   1954.577026  -14875.00000    115.756584
    3219           0      -403.420471   1954.577026  -15125.00000    112.326050
    3220           0      -403.420471   1954.577026  -15375.00000    108.677292
    3221           0      -403.420471   1954.577026  -15625.00000    105.283669
    3222           0      -403.420471   1954.577026  -15875.00000    101.771545
    3223           0      -403.420471   1954.577026  -16125.00000     98.420181
    3224           0      -403.420471   1954.577026  -16375.00000     95.029434
    3225           0      -403.420471   1954.577026  -16625.00000     91.746437
    3226           0      -403.420471   1954.577026  -16875.00000     88.467247
    3227           0      -403.420471   1954.577026  -17125.00000     85.270668
    3228           0      -403.420471   1954.577026  -17375.00000     82.102402
    3229           0      -403.420471   1954.577026  -17625.00000     79.005814
    3230           0      -403.420471   1954.577026  -17875.00000     75.952721
    3231           0      -403.420471   1954.577026  -18125.00000     72.967789
    3232           0      -403.420471   1954.577026  -18375.00000     70.036644
    3233           0      -403.420471   1954.577026  -18625.00000     67.173866
    3234           0      -403.420471   1954.577026  -18875.00000     64.372284
    3235           0      -403.420471   1954.577026  -19125.00000     61.640717
    3236           0      -403.420471   1954.577026  -19375.00000     58.975475
    3237           0      -403.420471   1954.577026  -19625.00000     56.382019
    3238           0      -403.420471   1954.577026  -19875.00000     53.857555
    3239           0      -403.420471   1954.577026  -20125.00000     51.405678
    3240           0      -403.420471   1954.577026  -20375.00000     49.023232
    3241           0      -403.420471   1954.577026  -20625.00000     46.712872
    3242           0      -403.420471   1954.577026  -20875.00000     44.470219
    3243           0      -403.420471   1954.577026  -21125.00000     42.298069
    3244           0      -403.420471   1954.577026  -21375.00000     40.190044
    3245           0      -403.420471   1954.577026  -21625.00000     38.150753
    3246           0      -403.420471   1954.577026  -21875.00000     36.170589
    3247           0      -403.420471   1954.577026  -22125.00000     34.258400
    3248           0      -403.420471   1954.577026  -22375.00000     32.399246
    3249           0      -403.420471   1954.577026  -22625.00000     30.609661
    3250           0      -403.420471   1954.577026  -22875.00000     28.865791
    3251           0      -403.420471   1954.577026  -23125.00000     27.196852
    3252           0      -403.420471   1954.577026  -23375.00000     25.564346
    3253           0      -403.420471   1954.577026  -23625.00000     24.017214
    3254           0      -403.420471   1954.577026  -23875.00000     22.494297
    3255           0      -403.420471   1954.577026  -24125.00000     21.073042
    3256           0      -403.420471   1954.577026  -24375.00000     19.660473
    3257           0      -403.420471   1954.577026  -24625.00000     18.370770
    3258           0      -403.420471   1954.577026  -24875.00000     17.077774
    3259           0      -403.420471   1954.577026  -25125.00000     15.885647
    3260           0      -403.420471   1954.577026  -25375.00000     14.854455
    3261           0      -403.420471   1954.577026  -25625.00000     13.488619
    3262           0      -403.420471   1954.577026  -25875.00000     11.815834
    3263           0      -515.668457   1924.500244  -13625.00000    119.804893
    3264           0      -515.668457   1924.500244  -13875.00000    128.058151
    3265           0      -515.668457   1924.500244  -14125.00000    122.811325
    3266           0      -515.668457   1924.500244  -14375.00000    119.257912
    3267           0      -515.668457   1924.500244  -14625.00000    116.086510
    3268           0      -515.668457   1924.500244  -14875.00000    112.963776
    3269           0      -515.668457   1924.500244  -15125.00000    109.617668
    3270           0      -515.668457   1924.500244  -15375.00000    106.603172
    3271           0      -515.668457   1924.500244  -15625.00000    103.395164
    3272           0      -515.668457   1924.500244  -15875.00000    100.405838
    3273           0      -515.668457   1924.500244  -16125.00000     97.325516
    3274           0      -515.668457   1924.500244  -16375.00000     94.385384
    3275           0      -515.668457   1924.500244  -16625.00000     91.412498
    3276           0      -515.668457   1924.500244  -16875.00000     88.537209
    3277           0      -515.668457   1924.500244  -17125.00000     85.662247
    3278           0      -515.668457   1924.500244  -17375.00000     82.861877
    3279           0      -515.668457   1924.500244  -17625.00000     80.081429
    3280           0      -515.668457   1924.500244  -17875.00000     77.363647
    3281           0      -515.668457   1924.500244  -18125.00000     74.677803
    3282           0      -515.668457   1924.500244  -18375.00000     72.048805
    3283           0      -515.668457   1924.500244  -18625.00000     69.459190
    3284           0      -515.668457   1924.500244  -18875.00000     66.923492
    3285           0      -515.668457   1924.500244  -19125.00000     64.431274
    3286           0      -515.668457   1924.500244  -19375.00000     61.991112
    3287           0      -515.668457   1924.500244  -19625.00000     59.595753
    3288           0      -515.668457   1924.500244  -19875.00000     57.250305
    3289           0      -515.668457   1924.500244  -20125.00000     54.948978
    3290           0      -515.668457   1924.500244  -20375.00000     52.694901
    3291           0      -515.668457   1924.500244  -20625.00000     50.482082
    3292           0      -515.668457   1924.500244  -20875.00000     48.314060
    3293           0      -515.668457   1924.500244  -21125.00000     46.182903
    3294           0      -515.668457   1924.500244  -21375.00000     44.094757
    3295           0      -515.668457   1924.500244  -21625.00000     42.037949
    3296           0      -515.668457   1924.500244  -21875.00000     40.024574
    3297           0      -515.668457   1924.500244  -22125.00000     38.035809
    3298           0      -515.668457   1924.500244  -22375.00000     36.095219
    3299           0      -515.668457   1924.500244  -22625.00000     34.170601
    3300           0      -515.668457   1924.500244  -22875.00000     32.306179
    3301           0      -515.668457   1924.500244  -23125.00000     30.445023
    3302           0      -515.668457   1924.500244  -23375.00000     28.667616
    3303           0      -515.668457   1924.500244  -23625.00000     26.872189
    3304           0      -515.668457   1924.500244  -23875.00000     25.201929
    3305           0      -515.668457   1924.500244  -24125.00000     23.476250
    3306           0      -515.668457   1924.500244  -24375.00000     21.944622
    3307           0      -515.668457   1924.500244  -24625.00000     20.288063
    3308           0      -515.668457   1924.500244  -24875.00000     18.963890
    3309           0      -515.668457   1924.500244  -25125.00000     17.288555
    3310           0      -515.668457   1924.500244  -25375.00000     16.404409
    3311           0      -515.668457   1924.500244  -25625.00000     14.781551
    3312           0      -515.668457   1924.500244  -25875.00000     12.596016
    3313           0      -627.916382   1894.423340  -13625.00000    116.708305
    3314           0      -627.916382   1894.423340  -13875.00000    117.750648
    3315           0      -627.916382   1894.423340  -14125.00000    117.248795
    3316           0      -627.916382   1894.423340  -14375.00000    112.954407
    3317           0      -627.916382   1894.423340  -14625.00000    110.360039
    3318           0      -627.916382   1894.423340  -14875.00000    107.388832
    3319           0      -627.916382   1894.423340  -15125.00000    104.594337
    3320           0      -627.916382   1894.423340  -15375.00000    101.727783
    3321           0      -627.916382   1894.423340  -15625.00000     99.005341
    3322           0      -627.916382   1894.423340  -15875.00000     96.227219
    3323           0      -627.916382   1894.423340  -16125.00000     93.559166
    3324           0      -627.916382   1894.423340  -16375.00000     90.866081
    3325           0      -627.916382   1894.423340  -16625.00000     88.253189
    3326           0      -627.916382   1894.423340  -16875.00000     85.636368
    3327           0      -627.916382   1894.423340  -17125.00000     83.080528
    3328           0      -627.916382   1894.423340  -17375.00000     80.534119
    3329           0      -627.916382   1894.423340  -17625.00000     78.036903
    3330           0      -627.916382   1894.423340  -17875.00000     75.557648
    3331           0      -627.916443   1894.423340  -18125.00000     73.120529
    3332           0      -627.916443   1894.423340  -18375.00000     70.706551
    3333           0      -627.916443   1894.423340  -18625.00000     68.330009
    3334           0      -627.916443   1894.423340  -18875.00000     65.978996
    3335           0      -627.916443   1894.423340  -19125.00000     63.661461
    3336           0      -627.916443   1894.423340  -19375.00000     61.369286
    3337           0      -627.916443   1894.423340  -19625.00000     59.106453
    3338           0      -627.916443   1894.423340  -19875.00000     56.866882
    3339           0      -627.916443   1894.423340  -20125.00000     54.652592
    3340           0      -627.916443   1894.423340  -20375.00000     52.458202
    3341           0      -627.916443   1894.423340  -20625.00000     50.285378
    3342           0      -627.916443   1894.423340  -20875.00000     48.128780
    3343           0      -627.916443   1894.423340  -21125.00000     45.991497
    3344           0      -627.916443   1894.423340  -21375.00000     43.866802
    3345           0      -627.916443   1894.423340  -21625.00000     41.761768
    3346           0      -627.916443   1894.423340  -21875.00000     39.666012
    3347           0      -627.916443   1894.423340  -22125.00000     37.594646
    3348           0      -627.916443   1894.423340  -22375.00000     35.529232
    3349           0      -627.916443   1894.423340  -22625.00000     33.500195
    3350           0      -627.916443   1894.423340  -22875.00000     31.472303
    3351           0      -627.916443   1894.423340  -23125.00000     29.504492
    3352           0      -627.916443   1894.423340  -23375.00000     27.527647
    3353           0      -627.916443   1894.423340  -23625.00000     25.653532
    3354           0      -627.916443   1894.423340  -23875.00000     23.746328
    3355           0      -627.916443   1894.423340  -24125.00000     22.016161
    3356           0      -627.916443   1894.423340  -24375.00000     20.198221
    3357           0      -627.916443   1894.423340  -24625.00000     18.688593
    3358           0      -627.916443   1894.423340  -24875.00000     16.970341
    3359           0      -627.916443   1894.423340  -25125.00000     15.791010
    3360           0      -627.916443   1894.423340  -25375.00000     14.263519
    3361           0      -627.916443   1894.423340  -25625.00000     13.104509
    3362           0      -627.916443   1894.423340  -25875.00000     13.518412
    3363           0      -736.700378   1854.829224  -13625.00000    114.041771
    3364           0      -736.700378   1854.829224  -13875.00000    109.386131
    3365           0      -736.700378   1854.829224  -14125.00000    111.076775
    3366           0      -736.700378   1854.829224  -14375.00000    107.033646
    3367           0      -736.700378   1854.829224  -14625.00000    104.816284
    3368           0      -736.700378   1854.829224  -14875.00000    102.211769
    3369           0      -736.700378   1854.829224  -15125.00000     99.871979
    3370           0      -736.700378   1854.829224  -15375.00000     97.371078
    3371           0      -736.700378   1854.829224  -15625.00000     95.069893
    3372           0      -736.700378   1854.829224  -15875.00000     92.683495
    3373           0      -736.700378   1854.829224  -16125.00000     90.413574
    3374           0      -736.700378   1854.829224  -16375.00000     88.115883
    3375           0      -736.700378   1854.829224  -16625.00000     85.887268
    3376           0      -736.700378   1854.829224  -16875.00000     83.656891
    3377           0      -736.700378   1854.829224  -17125.00000     81.470787
    3378           0      -736.700378   1854.829224  -17375.00000     79.293320
    3379           0      -736.700378   1854.829224  -17625.00000     77.145950
    3380           0      -736.700378   1854.829224  -17875.00000     75.009979
    3381           0      -736.700378   1854.829224  -18125.00000     72.894714
    3382           0      -736.700378   1854.829224  -18375.00000     70.789253
    3383           0      -736.700378   1854.829224  -18625.00000     68.696793
    3384           0      -736.700378   1854.829224  -18875.00000     66.609894
    3385           0      -736.700378   1854.829224  -19125.00000     64.528717
    3386           0      -736.700378   1854.829224  -19375.00000     62.447319
    3387           0      -736.700378   1854.829224  -19625.00000     60.364918
    3388           0      -736.700378   1854.829224  -19875.00000     58.276440
    3389           0      -736.700378   1854.829224  -20125.00000     56.181744
    3390           0      -736.700378   1854.829224  -20375.00000     54.076340
    3391           0      -736.700378   1854.829224  -20625.00000     51.961979
    3392           0      -736.700378   1854.829224  -20875.00000     49.834454
    3393           0      -736.700378   1854.829224  -21125.00000     47.698544
    3394           0      -736.700378   1854.829224  -21375.00000     45.549511
    3395           0      -736.700378   1854.829224  -21625.00000     43.396370
    3396           0      -736.700378   1854.829224  -21875.00000     41.232544
    3397           0      -736.700378   1854.829224  -22125.00000     39.073025
    3398           0      -736.700378   1854.829224  -22375.00000     36.907635
    3399           0      -736.700378   1854.829224  -22625.00000     34.759857
    3400           0      -736.700378   1854.829224  -22875.00000     32.613937
    3401           0      -736.700378   1854.829224  -23125.00000     30.504829
    3402           0      -736.700378   1854.829224  -23375.00000     28.409927
    3403           0      -736.700378   1854.829224  -23625.00000     26.377094
    3404           0      -736.700378   1854.829224  -23875.00000     24.379925
    3405           0      -736.700378   1854.829224  -24125.00000     22.472408
    3406           0      -736.700378   1854.829224  -24375.00000     20.643660
    3407           0      -736.700378   1854.829224  -24625.00000     18.919470
    3408           0      -736.700378   1854.829224  -24875.00000     17.365047
    3409           0      -736.700378   1854.829224  -25125.00000     15.890680
    3410           0      -736.700378   1854.829224  -25375.00000     14.750803
    3411           0      -736.700378   1854.829224  -25625.00000     13.528919
    3412           0      -736.700378   1854.829224  -25875.00000     12.543504
    3413           0      -842.020264   1805.717773  -13625.00000    100.211327
    3414           0      -842.020264   1805.717773  -13875.00000    107.540688
    3415           0      -842.020264   1805.717773  -14125.00000    103.768509
    3416           0      -842.020264   1805.717773  -14375.00000    101.484329
    3417           0      -842.020264   1805.717773  -14625.00000     99.552254
    3418           0      -842.020264   1805.717773  -14875.00000     97.576736
    3419           0      -842.020264   1805.717773  -15125.00000     95.524231
    3420           0      -842.020264   1805.717773  -15375.00000     93.676765
    3421           0      -842.020264   1805.717773  -15625.00000     91.730225
    3422           0      -842.020264   1805.717773  -15875.00000     89.927727
    3423           0      -842.020203   1805.717773  -16125.00000     88.078682
    3424           0      -842.020203   1805.717773  -16375.00000     86.321198
    3425           0      -842.020203   1805.717773  -16625.00000     84.544968
    3426           0      -842.020203   1805.717773  -16875.00000     82.826805
    3427           0      -842.020203   1805.717773  -17125.00000     81.101471
    3428           0      -842.020203   1805.717773  -17375.00000     79.410454
    3429           0      -842.020203   1805.717773  -17625.00000     77.713631
    3430           0      -842.020203   1805.717773  -17875.00000     76.031799
    3431           0      -842.020203   1805.717773  -18125.00000     74.338501
    3432           0      -842.020203   1805.717773  -18375.00000     72.642517
    3433           0      -842.020203   1805.717773  -18625.00000     70.924965
    3434           0      -842.020203   1805.717773  -18875.00000     69.188202
    3435           0      -842.020203   1805.717773  -19125.00000     67.418098
    3436           0      -842.020203   1805.717773  -19375.00000     65.614594
    3437           0      -842.020203   1805.717773  -19625.00000     63.767227
    3438           0      -842.020203   1805.717773  -19875.00000     61.876514
    3439           0      -842.020203   1805.717773  -20125.00000     59.935089
    3440           0      -842.020203   1805.717773  -20375.00000     57.946323
    3441           0      -842.020203   1805.717773  -20625.00000     55.905037
    3442           0      -842.020203   1805.717773  -20875.00000     53.819206
    3443           0      -842.020203   1805.717773  -21125.00000     51.684074
    3444           0      -842.020203   1805.717773  -21375.00000     49.513985
    3445           0      -842.020203   1805.717773  -21625.00000     47.301514
    3446           0      -842.020203   1805.717773  -21875.00000     45.069996
    3447           0      -842.020203   1805.717773  -22125.00000     42.804455
    3448           0      -842.020203   1805.717773  -22375.00000     40.542133
    3449           0      -842.020203   1805.717773  -22625.00000     38.253128
    3450           0      -842.020203   1805.717773  -22875.00000     35.997715
    3451           0      -842.020203   1805.717773  -23125.00000     33.719734
    3452           0      -842.020203   1805.717773  -23375.00000     31.518206
    3453           0      -842.020142   1805.717773  -23625.00000     29.293453
    3454           0      -842.020142   1805.717773  -23875.00000     27.207342
    3455           0      -842.020142   1805.717773  -24125.00000     25.092543
    3456           0      -842.020142   1805.717773  -24375.00000     23.204800
    3457           0      -842.020142   1805.717773  -24625.00000     21.282047
    3458           0      -842.020142   1805.717773  -24875.00000     19.710529
    3459           0      -842.020142   1805.717773  -25125.00000     18.074953
    3460           0      -842.020142   1805.717773  -25375.00000     17.021076
    3461           0      -842.020142   1805.717773  -25625.00000     15.887179
    3462           0      -842.020264   1805.717773  -25875.00000     14.912328
    3463           0      -947.340088   1756.606201  -13625.00000     93.178665
    3464           0      -947.340088   1756.606201  -13875.00000     96.359138
    3465           0      -947.340088   1756.606201  -14125.00000     95.931198
    3466           0      -947.340088   1756.606201  -14375.00000     93.400665
    3467           0      -947.340088   1756.606201  -14625.00000     91.945076
    3468           0      -947.340088   1756.606201  -14875.00000     90.346275
    3469           0      -947.340088   1756.606201  -15125.00000     88.782173
    3470           0      -947.340088   1756.606201  -15375.00000     87.254929
    3471           0      -947.340088   1756.606201  -15625.00000     85.786583
    3472           0      -947.340088   1756.606201  -15875.00000     84.319603
    3473           0      -947.340088   1756.606201  -16125.00000     82.912880
    3474           0      -947.340088   1756.606201  -16375.00000     81.503029
    3475           0      -947.340088   1756.606201  -16625.00000     80.138306
    3476           0      -947.340088   1756.606201  -16875.00000     78.768768
    3477           0      -947.340088   1756.606201  -17125.00000     77.427032
    3478           0      -947.340088   1756.606201  -17375.00000     76.075539
    3479           0      -947.340088   1756.606201  -17625.00000     74.733093
    3480           0      -947.340088   1756.606445  -17875.00000     73.370811
    3481           0      -947.340088   1756.606445  -18125.00000     71.996841
    3482           0      -947.340088   1756.606445  -18375.00000     70.587997
    3483           0      -947.340088   1756.606445  -18625.00000     69.145454
    3484           0      -947.340088   1756.606445  -18875.00000     67.650589
    3485           0      -947.340088   1756.606445  -19125.00000     66.101456
    3486           0      -947.340088   1756.606445  -19375.00000     64.483994
    3487           0      -947.340088   1756.606445  -19625.00000     62.796623
    3488           0      -947.340088   1756.606445  -19875.00000     61.030148
    3489           0      -947.340088   1756.606445  -20125.00000     59.186069
    3490           0      -947.340088   1756.606445  -20375.00000     57.259857
    3491           0      -947.340088   1756.606445  -20625.00000     55.257973
    3492           0      -947.340088   1756.606445  -20875.00000     53.179226
    3493           0      -947.340088   1756.606445  -21125.00000     51.036415
    3494           0      -947.340088   1756.606445  -21375.00000     48.828941
    3495           0      -947.340088   1756.606445  -21625.00000     46.577606
    3496           0      -947.340088   1756.606445  -21875.00000     44.277718
    3497           0      -947.340088   1756.606445  -22125.00000     41.961678
    3498           0      -947.340088   1756.606445  -22375.00000     39.613358
    3499           0      -947.340088   1756.606445  -22625.00000     37.284874
    3500           0      -947.340088   1756.606445  -22875.00000     34.937019
    3501           0      -947.340088   1756.606445  -23125.00000     32.658356
    3502           0      -947.340027   1756.606445  -23375.00000     30.366859
    3503           0      -947.340027   1756.606445  -23625.00000     28.218910
    3504           0      -947.340027   1756.606445  -23875.00000     26.054825
    3505           0      -947.340027   1756.606445  -24125.00000     24.152672
    3506           0      -947.340027   1756.606445  -24375.00000     22.215303
    3507           0      -947.340027   1756.606445  -24625.00000     20.724960
    3508           0      -947.340027   1756.606445  -24875.00000     19.152985
    3509           0      -947.340027   1756.606445  -25125.00000     18.303217
    3510           0      -947.340027   1756.606445  -25375.00000     17.236309
    3511           0      -947.340027   1756.606445  -25625.00000     17.225859
    3512           0      -947.340088   1756.606445  -25875.00000     17.707001
    3513           0     -1047.595947   1698.723511  -13625.00000     90.558914
    3514           0     -1047.595947   1698.723511  -13875.00000     86.861839
    3515           0     -1047.595947   1698.723511  -14125.00000     88.925446
    3516           0     -1047.595947   1698.723511  -14375.00000     86.574135
    3517           0     -1047.595947   1698.723511  -14625.00000     85.441223
    3518           0     -1047.595947   1698.723511  -14875.00000     84.177025
    3519           0     -1047.595947   1698.723511  -15125.00000     83.016899
    3520           0     -1047.595947   1698.723511  -15375.00000     81.813034
    3521           0     -1047.595947   1698.723511  -15625.00000     80.712921
    3522           0     -1047.595947   1698.723511  -15875.00000     79.592087
    3523           0     -1047.595947   1698.723511  -16125.00000     78.527885
    3524           0     -1047.595947   1698.723511  -16375.00000     77.464844
    3525           0     -1047.595947   1698.723511  -16625.00000     76.427055
    3526           0     -1047.595947   1698.723511  -16875.00000     75.392174
    3527           0     -1047.595947   1698.723511  -17125.00000     74.361092
    3528           0     -1047.595947   1698.723511  -17375.00000     73.323318
    3529           0     -1047.595947   1698.723511  -17625.00000     72.269806
    3530           0     -1047.595947   1698.723511  -17875.00000     71.192795
    3531           0     -1047.595947   1698.723511  -18125.00000     70.079308
    3532           0     -1047.595947   1698.723511  -18375.00000     68.921410
    3533           0     -1047.595947   1698.723511  -18625.00000     67.705750
    3534           0     -1047.595947   1698.723511  -18875.00000     66.424377
    3535           0     -1047.595947   1698.723511  -19125.00000     65.066269
    3536           0     -1047.595947   1698.723511  -19375.00000     63.624821
    3537           0     -1047.595947   1698.723511  -19625.00000     62.093414
    3538           0     -1047.595947   1698.723511  -19875.00000     60.468029
    3539           0     -1047.595947   1698.723511  -20125.00000     58.747841
    3540           0     -1047.595947   1698.723511  -20375.00000     56.932056
    3541           0     -1047.595947   1698.723511  -20625.00000     55.026363
    3542           0     -1047.595947   1698.723511  -20875.00000     53.032867
    3543           0     -1047.595947   1698.723511  -21125.00000     50.963989
    3544           0     -1047.595947   1698.723511  -21375.00000     48.823502
    3545           0     -1047.595947   1698.723511  -21625.00000     46.630569
    3546           0     -1047.595947   1698.723511  -21875.00000     44.388710
    3547           0     -1047.595947   1698.723511  -22125.00000     42.123856
    3548           0     -1047.595947   1698.723511  -22375.00000     39.837399
    3549           0     -1047.595947   1698.723511  -22625.00000     37.562298
    3550           0     -1047.595947   1698.723511  -22875.00000     35.297585
    3551           0     -1047.595947   1698.723511  -23125.00000     33.082943
    3552           0     -1047.595947   1698.723511  -23375.00000     30.919954
    3553           0     -1047.595947   1698.723511  -23625.00000     28.849913
    3554           0     -1047.595947   1698.723511  -23875.00000     26.895266
    3555           0     -1047.595947   1698.723511  -24125.00000     25.074778
    3556           0     -1047.595947   1698.723511  -24375.00000     23.483715
    3557           0     -1047.595947   1698.723511  -24625.00000     22.038458
    3558           0     -1047.595947   1698.723511  -24875.00000     21.019249
    3559           0     -1047.595947   1698.723511  -25125.00000     20.097446
    3560           0     -1047.595947   1698.723511  -25375.00000     19.840544
    3561           0     -1047.595947   1698.723511  -25625.00000     19.308504
    3562           0     -1047.595947   1698.723511  -25875.00000     20.279240
    3563           0     -1142.787598   1632.069580  -13625.00000     78.456146
    3564           0     -1142.787598   1632.069580  -13875.00000     84.492966
    3565           0     -1142.787598   1632.069580  -14125.00000     82.084366
    3566           0     -1142.787598   1632.069580  -14375.00000     80.998001
    3567           0     -1142.787598   1632.069580  -14625.00000     80.155624
    3568           0     -1142.787598   1632.069580  -14875.00000     79.184341
    3569           0     -1142.787598   1632.069580  -15125.00000     78.274643
    3570           0     -1142.787598   1632.069580  -15375.00000     77.426056
    3571           0     -1142.787598   1632.069580  -15625.00000     76.573860
    3572           0     -1142.787598   1632.069580  -15875.00000     75.776787
    3573           0     -1142.787598   1632.069580  -16125.00000     74.979141
    3574           0     -1142.787598   1632.069580  -16375.00000     74.214264
    3575           0     -1142.787598   1632.069580  -16625.00000     73.446442
    3576           0     -1142.787598   1632.069580  -16875.00000     72.689781
    3577           0     -1142.787598   1632.069580  -17125.00000     71.919678
    3578           0     -1142.787598   1632.069580  -17375.00000     71.137985
    3579           0     -1142.787598   1632.069580  -17625.00000     70.325684
    3580           0     -1142.787598   1632.069580  -17875.00000     69.477791
    3581           0     -1142.787598   1632.069580  -18125.00000     68.578529
    3582           0     -1142.787598   1632.069580  -18375.00000     67.620407
    3583           0     -1142.787598   1632.069580  -18625.00000     66.590393
    3584           0     -1142.787598   1632.069580  -18875.00000     65.481743
    3585           0     -1142.787598   1632.069580  -19125.00000     64.284416
    3586           0     -1142.787598   1632.069580  -19375.00000     62.994614
    3587           0     -1142.787598   1632.069580  -19625.00000     61.605442
    3588           0     -1142.787598   1632.069580  -19875.00000     60.117649
    3589           0     -1142.787598   1632.069580  -20125.00000     58.527199
    3590           0     -1142.787598   1632.069580  -20375.00000     56.840706
    3591           0     -1142.787598   1632.069580  -20625.00000     55.056129
    3592           0     -1142.787598   1632.069580  -20875.00000     53.187370
    3593           0     -1142.787598   1632.069580  -21125.00000     51.232780
    3594           0     -1142.787598   1632.069580  -21375.00000     49.215435
    3595           0     -1142.787598   1632.069580  -21625.00000     47.131195
    3596           0     -1142.787598   1632.069580  -21875.00000     45.015305
    3597           0     -1142.787598   1632.069580  -22125.00000     42.856342
    3598           0     -1142.787598   1632.069580  -22375.00000     40.706493
    3599           0     -1142.787598   1632.069580  -22625.00000     38.539715
    3600           0     -1142.787598   1632.069580  -22875.00000     36.432995
    3601           0     -1142.787598   1632.069580  -23125.00000     34.335587
    3602           0     -1142.787598   1632.069580  -23375.00000     32.361202
    3603           0     -1142.787598   1632.069580  -23625.00000     30.422836
    3604           0     -1142.787598   1632.069580  -23875.00000     28.685198
    3605           0     -1142.787720   1632.069580  -24125.00000     27.017216
    3606           0     -1142.787720   1632.069580  -24375.00000     25.638170
    3607           0     -1142.787720   1632.069580  -24625.00000     24.386181
    3608           0     -1142.787720   1632.069580  -24875.00000     23.486881
    3609           0     -1142.787720   1632.069580  -25125.00000     22.824163
    3610           0     -1142.787720   1632.069580  -25375.00000     22.494268
    3611           0     -1142.787720   1632.069580  -25625.00000     22.600948
    3612           0     -1142.787720   1632.069580  -25875.00000     22.596828
    3613           0     -1237.979370   1565.415527  -13625.00000     70.740547
    3614           0     -1237.979370   1565.415527  -13875.00000     75.007950
    3615           0     -1237.979370   1565.415527  -14125.00000     74.525322
    3616           0     -1237.979370   1565.415527  -14375.00000     73.429878
    3617           0     -1237.979370   1565.415527  -14625.00000     72.763985
    3618           0     -1237.979370   1565.415527  -14875.00000     72.169777
    3619           0     -1237.979370   1565.415527  -15125.00000     71.490471
    3620           0     -1237.979370   1565.415527  -15375.00000     70.926880
    3621           0     -1237.979370   1565.415527  -15625.00000     70.345863
    3622           0     -1237.979370   1565.415527  -15875.00000     69.814415
    3623           0     -1237.979370   1565.415527  -16125.00000     69.291847
    3624           0     -1237.979370   1565.415527  -16375.00000     68.791412
    3625           0     -1237.979370   1565.415527  -16625.00000     68.299385
    3626           0     -1237.979370   1565.415527  -16875.00000     67.809921
    3627           0     -1237.979370   1565.415527  -17125.00000     67.315147
    3628           0     -1237.979370   1565.415527  -17375.00000     66.800880
    3629           0     -1237.979370   1565.415527  -17625.00000     66.258804
    3630           0     -1237.979370   1565.415527  -17875.00000     65.671898
    3631           0     -1237.979370   1565.415527  -18125.00000     65.031075
    3632           0     -1237.979370   1565.415527  -18375.00000     64.319984
    3633           0     -1237.979370   1565.415527  -18625.00000     63.530521
    3634           0     -1237.979370   1565.415527  -18875.00000     62.649040
    3635           0     -1237.979370   1565.415527  -19125.00000     61.670200
    3636           0     -1237.979370   1565.415527  -19375.00000     60.584042
    3637           0     -1237.979370   1565.415527  -19625.00000     59.389454
    3638           0     -1237.979370   1565.415527  -19875.00000     58.080303
    3639           0     -1237.979370   1565.415527  -20125.00000     56.660988
    3640           0     -1237.979370   1565.415527  -20375.00000     55.128742
    3641           0     -1237.979370   1565.415527  -20625.00000     53.494995
    3642           0     -1237.979370   1565.415527  -20875.00000     51.759083
    3643           0     -1237.979370   1565.415527  -21125.00000     49.941513
    3644           0     -1237.979370   1565.415527  -21375.00000     48.041183
    3645           0     -1237.979370   1565.415527  -21625.00000     46.090698
    3646           0     -1237.979370   1565.415527  -21875.00000     44.083771
    3647           0     -1237.979370   1565.415527  -22125.00000     42.070026
    3648           0     -1237.979370   1565.415527  -22375.00000     40.029675
    3649           0     -1237.979370   1565.415527  -22625.00000     38.038033
    3650           0     -1237.979370   1565.415527  -22875.00000     36.048225
    3651           0     -1237.979370   1565.415527  -23125.00000     34.177082
    3652           0     -1237.979370   1565.415527  -23375.00000     32.329548
    3653           0     -1237.979370   1565.415527  -23625.00000     30.691376
    3654           0     -1237.979370   1565.415527  -23875.00000     29.087162
    3655           0     -1237.979492   1565.415527  -24125.00000     27.812988
    3656           0     -1237.979492   1565.415527  -24375.00000     26.565447
    3657           0     -1237.979492   1565.415527  -24625.00000     25.799171
    3658           0     -1237.979492   1565.415527  -24875.00000     25.032347
    3659           0     -1237.979492   1565.415527  -25125.00000     24.882427
    3660           0     -1237.979492   1565.415527  -25375.00000     24.702744
    3661           0     -1237.979492   1565.415527  -25625.00000     25.407276
    3662           0     -1237.979370   1565.415527  -25875.00000     25.468307
    3663           0     -1326.660889   1491.003052  -13625.00000     71.171608
    3664           0     -1326.660889   1491.003052  -13875.00000     67.975449
    3665           0     -1326.660889   1491.003052  -14125.00000     69.912117
    3666           0     -1326.660889   1491.003052  -14375.00000     68.651215
    3667           0     -1326.660889   1491.003052  -14625.00000     68.003456
    3668           0     -1326.660889   1491.003052  -14875.00000     67.511520
    3669           0     -1326.660889   1491.003052  -15125.00000     66.922073
    3670           0     -1326.660889   1491.003052  -15375.00000     66.420853
    3671           0     -1326.660889   1491.003052  -15625.00000     65.920807
    3672           0     -1326.660889   1491.003052  -15875.00000     65.465027
    3673           0     -1326.660889   1491.003052  -16125.00000     65.016190
    3674           0     -1326.660889   1491.003052  -16375.00000     64.602631
    3675           0     -1326.660889   1491.003052  -16625.00000     64.190491
    3676           0     -1326.660889   1491.003052  -16875.00000     63.799938
    3677           0     -1326.660889   1491.003052  -17125.00000     63.399284
    3678           0     -1326.660889   1491.003052  -17375.00000     62.999676
    3679           0     -1326.660889   1491.003052  -17625.00000     62.571938
    3680           0     -1326.660889   1491.003052  -17875.00000     62.119968
    3681           0     -1326.660889   1491.003052  -18125.00000     61.618210
    3682           0     -1326.660889   1491.003052  -18375.00000     61.065926
    3683           0     -1326.660889   1491.003052  -18625.00000     60.442204
    3684           0     -1326.660889   1491.003052  -18875.00000     59.744251
    3685           0     -1326.660889   1491.003052  -19125.00000     58.956528
    3686           0     -1326.660889   1491.003052  -19375.00000     58.076290
    3687           0     -1326.660889   1491.003052  -19625.00000     57.093929
    3688           0     -1326.660889   1491.003052  -19875.00000     56.008392
    3689           0     -1326.660889   1491.003052  -20125.00000     54.816570
    3690           0     -1326.660889   1491.003052  -20375.00000     53.520260
    3691           0     -1326.660889   1491.003052  -20625.00000     52.123207
    3692           0     -1326.660889   1491.003052  -20875.00000     50.630775
    3693           0     -1326.660889   1491.003052  -21125.00000     49.053631
    3694           0     -1326.660889   1491.003052  -21375.00000     47.400711
    3695           0     -1326.660889   1491.003052  -21625.00000     45.689220
    3696           0     -1326.660889   1491.003052  -21875.00000     43.931339
    3697           0     -1326.660889   1491.003052  -22125.00000     42.149632
    3698           0     -1326.660889   1491.003052  -22375.00000     40.359341
    3699           0     -1326.660889   1491.003052  -22625.00000     38.586052
    3700           0     -1326.660889   1491.003052  -22875.00000     36.849556
    3701           0     -1326.660889   1491.003052  -23125.00000     35.173351
    3702           0     -1326.660889   1491.003052  -23375.00000     33.588428
    3703           0     -1326.660889   1491.003052  -23625.00000     32.103481
    3704           0     -1326.660889   1491.003052  -23875.00000     30.779865
    3705           0     -1326.660889   1491.003052  -24125.00000     29.578056
    3706           0     -1326.660889   1491.003052  -24375.00000     28.639812
    3707           0     -1326.660889   1491.003052  -24625.00000     27.792685
    3708           0     -1326.660889   1491.003052  -24875.00000     27.371944
    3709           0     -1326.660889   1491.003052  -25125.00000     26.923677
    3710           0     -1326.661011   1491.003052  -25375.00000     27.135168
    3711           0     -1326.661011   1491.002930  -25625.00000     26.850401
    3712           0     -1326.661011   1491.002930  -25875.00000     27.920637
    3713           0     -1408.832275   1408.831787  -13625.00000     64.702141
    3714           0     -1408.832275   1408.831787  -13875.00000     69.241707
    3715           0     -1408.832275   1408.831787  -14125.00000     67.340515
    3716           0     -1408.832275   1408.831787  -14375.00000     66.600708
    3717           0     -1408.832275   1408.831787  -14625.00000     65.962990
    3718           0     -1408.832275   1408.831787  -14875.00000     65.185066
    3719           0     -1408.832275   1408.831787  -15125.00000     64.501114
    3720           0     -1408.832275   1408.831787  -15375.00000     63.804520
    3721           0     -1408.832275   1408.831787  -15625.00000     63.151676
    3722           0     -1408.832275   1408.831787  -15875.00000     62.510704
    3723           0     -1408.832275   1408.831787  -16125.00000     61.912537
    3724           0     -1408.832275   1408.831787  -16375.00000     61.332203
    3725           0     -1408.832275   1408.831787  -16625.00000     60.792442
    3726           0     -1408.832275   1408.831787  -16875.00000     60.269615
    3727           0     -1408.832275   1408.831787  -17125.00000     59.778484
    3728           0     -1408.832275   1408.831787  -17375.00000     59.296429
    3729           0     -1408.832275   1408.831787  -17625.00000     58.830406
    3730           0     -1408.832275   1408.831787  -17875.00000     58.358894
    3731           0     -1408.832275   1408.831787  -18125.00000     57.881874
    3732           0     -1408.832275   1408.831787  -18375.00000     57.379265
    3733           0     -1408.832275   1408.831787  -18625.00000     56.845753
    3734           0     -1408.832275   1408.831787  -18875.00000     56.263584
    3735           0     -1408.832031   1408.831787  -19125.00000     55.624584
    3736           0     -1408.832031   1408.831787  -19375.00000     54.914936
    3737           0     -1408.832031   1408.831787  -19625.00000     54.126160
    3738           0     -1408.832031   1408.831787  -19875.00000     53.250301
    3739           0     -1408.832031   1408.831787  -20125.00000     52.280758
    3740           0     -1408.832031   1408.831787  -20375.00000     51.217205
    3741           0     -1408.832031   1408.831787  -20625.00000     50.056095
    3742           0     -1408.832031   1408.831787  -20875.00000     48.806236
    3743           0     -1408.832031   1408.831787  -21125.00000     47.466972
    3744           0     -1408.832031   1408.831787  -21375.00000     46.057430
    3745           0     -1408.832031   1408.831787  -21625.00000     44.578228
    3746           0     -1408.832031   1408.831787  -21875.00000     43.059933
    3747           0     -1408.832031   1408.831787  -22125.00000     41.501282
    3748           0     -1408.832031   1408.831787  -22375.00000     39.945747
    3749           0     -1408.832031   1408.831787  -22625.00000     38.385349
    3750           0     -1408.832031   1408.831787  -22875.00000     36.878689
    3751           0     -1408.832031   1408.831787  -23125.00000     35.404510
    3752           0     -1408.832031   1408.831787  -23375.00000     34.039490
    3753           0     -1408.832031   1408.831787  -23625.00000     32.741070
    3754           0     -1408.832031   1408.831787  -23875.00000     31.606905
    3755           0     -1408.832031   1408.831787  -24125.00000     30.565575
    3756           0     -1408.832031   1408.831787  -24375.00000     29.736458
    3757           0     -1408.832031   1408.831787  -24625.00000     29.019901
    3758           0     -1408.832031   1408.831787  -24875.00000     28.534597
    3759           0     -1408.832031   1408.831787  -25125.00000     28.220268
    3760           0     -1408.832031   1408.831787  -25375.00000     28.028198
    3761           0     -1408.832153   1408.831787  -25625.00000     28.280903
    3762           0     -1408.832153   1408.831787  -25875.00000     27.985683
    3763           0     -1491.003296   1326.660645  -13625.00000     61.561878
    3764           0     -1491.003296   1326.660645  -13875.00000     65.114746
    3765           0     -1491.003296   1326.660645  -14125.00000     64.222198
    3766           0     -1491.003296   1326.660645  -14375.00000     63.311405
    3767           0     -1491.003296   1326.660645  -14625.00000     62.509750
    3768           0     -1491.003296   1326.660645  -14875.00000     61.820282
    3769           0     -1491.003296   1326.660645  -15125.00000     61.053894
    3770           0     -1491.003296   1326.660645  -15375.00000     60.405071
    3771           0     -1491.003296   1326.660645  -15625.00000     59.752941
    3772           0     -1491.003296   1326.660645  -15875.00000     59.206642
    3773           0     -1491.003296   1326.660645  -16125.00000     58.700974
    3774           0     -1491.003296   1326.660645  -16375.00000     58.303154
    3775           0     -1491.003296   1326.660645  -16625.00000     57.968277
    3776           0     -1491.003296   1326.660645  -16875.00000     57.734554
    3777           0     -1491.003296   1326.660645  -17125.00000     57.566254
    3778           0     -1491.003296   1326.660645  -17375.00000     57.478737
    3779           0     -1491.003296   1326.660645  -17625.00000     57.439129
    3780           0     -1491.003296   1326.660645  -17875.00000     57.444839
    3781           0     -1491.003296   1326.660645  -18125.00000     57.463158
    3782           0     -1491.003296   1326.660645  -18375.00000     57.479031
    3783           0     -1491.003296   1326.660645  -18625.00000     57.460857
    3784           0     -1491.003296   1326.660645  -18875.00000     57.387516
    3785           0     -1491.003296   1326.660645  -19125.00000     57.231689
    3786           0     -1491.003296   1326.660645  -19375.00000     56.972248
    3787           0     -1491.003296   1326.660645  -19625.00000     56.589745
    3788           0     -1491.003296   1326.660645  -19875.00000     56.067486
    3789           0     -1491.003296   1326.660645  -20125.00000     55.396824
    3790           0     -1491.003296   1326.660645  -20375.00000     54.567959
    3791           0     -1491.003296   1326.660645  -20625.00000     53.585182
    3792           0     -1491.003296   1326.660645  -20875.00000     52.445972
    3793           0     -1491.003296   1326.660645  -21125.00000     51.169075
    3794           0     -1491.003296   1326.660645  -21375.00000     49.757442
    3795           0     -1491.003296   1326.660645  -21625.00000     48.245506
    3796           0     -1491.003296   1326.660645  -21875.00000     46.637146
    3797           0     -1491.003296   1326.660645  -22125.00000     44.983662
    3798           0     -1491.003296   1326.660645  -22375.00000     43.281490
    3799           0     -1491.003296   1326.660645  -22625.00000     41.600971
    3800           0     -1491.003296   1326.660645  -22875.00000     39.917824
    3801           0     -1491.003296   1326.660645  -23125.00000     38.327236
    3802           0     -1491.003296   1326.660645  -23375.00000     36.764950
    3803           0     -1491.003296   1326.660645  -23625.00000     35.366123
    3804           0     -1491.003296   1326.660645  -23875.00000     33.999359
    3805           0     -1491.003296   1326.660645  -24125.00000     32.873539
    3806           0     -1491.003296   1326.660645  -24375.00000     31.744242
    3807           0     -1491.003296   1326.660645  -24625.00000     30.961342
    3808           0     -1491.003296   1326.660645  -24875.00000     30.093800
    3809           0     -1491.003296   1326.660645  -25125.00000     29.653236
    3810           0     -1491.003296   1326.660645  -25375.00000     29.165638
    3811           0     -1491.003296   1326.660645  -25625.00000     29.195843
    3812           0     -1491.003296   1326.660645  -25875.00000     28.324104
    3813           0     -1565.416016   1237.979126  -13625.00000     68.514397
    3814           0     -1565.416016   1237.979126  -13875.00000     64.032402
    3815           0     -1565.416016   1237.979126  -14125.00000     65.420753
    3816           0     -1565.416016   1237.979126  -14375.00000     63.775753
    3817           0     -1565.416016   1237.979126  -14625.00000     62.532223
    3818           0     -1565.416016   1237.979126  -14875.00000     61.582020
    3819           0     -1565.416016   1237.979126  -15125.00000     60.464024
    3820           0     -1565.416016   1237.979126  -15375.00000     59.504986
    3821           0     -1565.416016   1237.979126  -15625.00000     58.586853
    3822           0     -1565.416016   1237.979126  -15875.00000     57.794659
    3823           0     -1565.416016   1237.979126  -16125.00000     57.115124
    3824           0     -1565.416016   1237.979126  -16375.00000     56.584743
    3825           0     -1565.416016   1237.979126  -16625.00000     56.197632
    3826           0     -1565.416016   1237.979126  -16875.00000     55.968338
    3827           0     -1565.416016   1237.979126  -17125.00000     55.880657
    3828           0     -1565.416016   1237.979126  -17375.00000     55.930656
    3829           0     -1565.416016   1237.979126  -17625.00000     56.088036
    3830           0     -1565.416016   1237.979126  -17875.00000     56.333401
    3831           0     -1565.416016   1237.979126  -18125.00000     56.626259
    3832           0     -1565.416016   1237.979126  -18375.00000     56.937912
    3833           0     -1565.416016   1237.979126  -18625.00000     57.225307
    3834           0     -1565.416016   1237.979126  -18875.00000     57.458157
    3835           0     -1565.416016   1237.979126  -19125.00000     57.598114
    3836           0     -1565.416016   1237.979126  -19375.00000     57.619751
    3837           0     -1565.416016   1237.979126  -19625.00000     57.494236
    3838           0     -1565.416016   1237.979126  -19875.00000     57.205181
    3839           0     -1565.416016   1237.979126  -20125.00000     56.735565
    3840           0     -1565.416016   1237.979126  -20375.00000     56.080273
    3841           0     -1565.416016   1237.979126  -20625.00000     55.234718
    3842           0     -1565.416016   1237.979126  -20875.00000     54.206154
    3843           0     -1565.416016   1237.979126  -21125.00000     53.001793
    3844           0     -1565.416016   1237.979126  -21375.00000     51.641422
    3845           0     -1565.416016   1237.979126  -21625.00000     50.142044
    3846           0     -1565.416016   1237.979126  -21875.00000     48.535038
    3847           0     -1565.416016   1237.979126  -22125.00000     46.842796
    3848           0     -1565.416016   1237.979126  -22375.00000     45.105824
    3849           0     -1565.416016   1237.979126  -22625.00000     43.344616
    3850           0     -1565.416016   1237.979126  -22875.00000     41.605438
    3851           0     -1565.416016   1237.979126  -23125.00000     39.897144
    3852           0     -1565.416016   1237.979126  -23375.00000     38.270531
    3853           0     -1565.416016   1237.979126  -23625.00000     36.712906
    3854           0     -1565.416016   1237.979126  -23875.00000     35.285431
    3855           0     -1565.416016   1237.979126  -24125.00000     33.944099
    3856           0     -1565.416016   1237.979126  -24375.00000     32.776802
    3857           0     -1565.416016   1237.979126  -24625.00000     31.682066
    3858           0     -1565.416016   1237.979126  -24875.00000     30.828583
    3859           0     -1565.416016   1237.979126  -25125.00000     29.948208
    3860           0     -1565.416016   1237.979126  -25375.00000     29.378204
    3861           0     -1565.416016   1237.979126  -25625.00000     29.018711
    3862           0     -1565.416016   1237.979126  -25875.00000     27.239952
    3863           0     -1632.069946   1142.787354  -13625.00000     69.360985
    3864           0     -1632.069946   1142.787354  -13875.00000     72.709816
    3865           0     -1632.069946   1142.787354  -14125.00000     69.853951
    3866           0     -1632.069946   1142.787354  -14375.00000     68.014946
    3867           0     -1632.069946   1142.787354  -14625.00000     66.183594
    3868           0     -1632.069946   1142.787354  -14875.00000     64.376602
    3869           0     -1632.069946   1142.787354  -15125.00000     62.539322
    3870           0     -1632.069946   1142.787354  -15375.00000     60.844906
    3871           0     -1632.069946   1142.787354  -15625.00000     59.209698
    3872           0     -1632.069946   1142.787354  -15875.00000     57.738430
    3873           0     -1632.069946   1142.787354  -16125.00000     56.428280
    3874           0     -1632.069946   1142.787354  -16375.00000     55.317368
    3875           0     -1632.069946   1142.787354  -16625.00000     54.430244
    3876           0     -1632.069946   1142.787354  -16875.00000     53.763641
    3877           0     -1632.069946   1142.787354  -17125.00000     53.332142
    3878           0     -1632.069946   1142.787354  -17375.00000     53.102177
    3879           0     -1632.069946   1142.787354  -17625.00000     53.064751
    3880           0     -1632.069946   1142.787354  -17875.00000     53.167629
    3881           0     -1632.069946   1142.787354  -18125.00000     53.382748
    3882           0     -1632.069946   1142.787354  -18375.00000     53.652935
    3883           0     -1632.069946   1142.787354  -18625.00000     53.942680
    3884           0     -1632.069946   1142.787354  -18875.00000     54.200886
    3885           0     -1632.069946   1142.787354  -19125.00000     54.394474
    3886           0     -1632.069946   1142.787354  -19375.00000     54.484047
    3887           0     -1632.069946   1142.787354  -19625.00000     54.444458
    3888           0     -1632.069946   1142.787354  -19875.00000     54.249504
    3889           0     -1632.069946   1142.787354  -20125.00000     53.884327
    3890           0     -1632.069946   1142.787354  -20375.00000     53.335564
    3891           0     -1632.069946   1142.787354  -20625.00000     52.599640
    3892           0     -1632.069946   1142.787354  -20875.00000     51.675339
    3893           0     -1632.069946   1142.787354  -21125.00000     50.571144
    3894           0     -1632.069946   1142.787354  -21375.00000     49.297359
    3895           0     -1632.069946   1142.787354  -21625.00000     47.875195
    3896           0     -1632.069946   1142.787354  -21875.00000     46.325329
    3897           0     -1632.069946   1142.787354  -22125.00000     44.681267
    3898           0     -1632.069946   1142.787354  -22375.00000     42.971622
    3899           0     -1632.069946   1142.787354  -22625.00000     41.239220
    3900           0     -1632.069946   1142.787354  -22875.00000     39.515713
    3901           0     -1632.069946   1142.787354  -23125.00000     37.845543
    3902           0     -1632.069946   1142.787354  -23375.00000     36.258369
    3903           0     -1632.069946   1142.787354  -23625.00000     34.785809
    3904           0     -1632.069946   1142.787354  -23875.00000     33.459621
    3905           0     -1632.069946   1142.787354  -24125.00000     32.270889
    3906           0     -1632.069946   1142.787354  -24375.00000     31.288176
    3907           0     -1632.069946   1142.787354  -24625.00000     30.401850
    3908           0     -1632.069946   1142.787354  -24875.00000     29.780014
    3909           0     -1632.069946   1142.787354  -25125.00000     29.228546
    3910           0     -1632.069946   1142.787354  -25375.00000     28.739946
    3911           0     -1632.069946   1142.787354  -25625.00000     28.782167
    3912           0     -1632.069946   1142.787354  -25875.00000     27.737347
    3913           0     -1698.723877   1047.595581  -13625.00000     75.218849
    3914           0     -1698.723877   1047.595581  -13875.00000     76.412399
    3915           0     -1698.723877   1047.595581  -14125.00000     74.513664
    3916           0     -1698.723877   1047.595581  -14375.00000     71.727333
    3917           0     -1698.723877   1047.595581  -14625.00000     69.447891
    3918           0     -1698.723877   1047.595581  -14875.00000     67.044640
    3919           0     -1698.723877   1047.595581  -15125.00000     64.831711
    3920           0     -1698.723877   1047.595581  -15375.00000     62.720657
    3921           0     -1698.723877   1047.595581  -15625.00000     60.823196
    3922           0     -1698.723877   1047.595581  -15875.00000     59.170513
    3923           0     -1698.723877   1047.595581  -16125.00000     57.780758
    3924           0     -1698.723877   1047.595581  -16375.00000     56.723690
    3925           0     -1698.723877   1047.595581  -16625.00000     55.971306
    3926           0     -1698.723877   1047.595581  -16875.00000     55.566914
    3927           0     -1698.723877   1047.595581  -17125.00000     55.450958
    3928           0     -1698.723877   1047.595581  -17375.00000     55.619156
    3929           0     -1698.723877   1047.595581  -17625.00000     55.993645
    3930           0     -1698.723877   1047.595581  -17875.00000     56.535984
    3931           0     -1698.723877   1047.595581  -18125.00000     57.168526
    3932           0     -1698.723877   1047.595581  -18375.00000     57.841640
    3933           0     -1698.723877   1047.595581  -18625.00000     58.491062
    3934           0     -1698.723877   1047.595581  -18875.00000     59.071453
    3935           0     -1698.723877   1047.595581  -19125.00000     59.535831
    3936           0     -1698.723877   1047.595581  -19375.00000     59.849167
    3937           0     -1698.723877   1047.595581  -19625.00000     59.980141
    3938           0     -1698.723877   1047.595581  -19875.00000     59.904888
    3939           0     -1698.723877   1047.595581  -20125.00000     59.604961
    3940           0     -1698.723877   1047.595581  -20375.00000     59.067230
    3941           0     -1698.723877   1047.595581  -20625.00000     58.284325
    3942           0     -1698.723877   1047.595581  -20875.00000     57.254078
    3943           0     -1698.723877   1047.595581  -21125.00000     55.980263
    3944           0     -1698.723877   1047.595581  -21375.00000     54.473175
    3945           0     -1698.723877   1047.595581  -21625.00000     52.749783
    3946           0     -1698.723877   1047.595581  -21875.00000     50.834652
    3947           0     -1698.723877   1047.595581  -22125.00000     48.761322
    3948           0     -1698.723877   1047.595581  -22375.00000     46.569679
    3949           0     -1698.723877   1047.595581  -22625.00000     44.312763
    3950           0     -1698.723877   1047.595581  -22875.00000     42.040146
    3951           0     -1698.723877   1047.595581  -23125.00000     39.824718
    3952           0     -1698.723877   1047.595581  -23375.00000     37.706207
    3953           0     -1698.723877   1047.595581  -23625.00000     35.775352
    3954           0     -1698.723877   1047.595581  -23875.00000     34.022274
    3955           0     -1698.723877   1047.595581  -24125.00000     32.566181
    3956           0     -1698.723877   1047.595581  -24375.00000     31.288183
    3957           0     -1698.723877   1047.595581  -24625.00000     30.406027
    3958           0     -1698.723877   1047.595581  -24875.00000     29.596695
    3959           0     -1698.723877   1047.595581  -25125.00000     29.242741
    3960           0     -1698.723877   1047.595581  -25375.00000     29.191978
    3961           0     -1698.723877   1047.595581  -25625.00000     28.442076
    3962           0     -1698.723877   1047.595581  -25875.00000     29.793995
    3963           0     -1756.606689    947.339722  -13625.00000     90.534012
    3964           0     -1756.606689    947.339722  -13875.00000     82.113304
    3965           0     -1756.606689    947.339722  -14125.00000     82.422401
    3966           0     -1756.606689    947.339722  -14375.00000     78.135330
    3967           0     -1756.606689    947.339722  -14625.00000     74.803177
    3968           0     -1756.606689    947.339722  -14875.00000     71.607826
    3969           0     -1756.606689    947.339722  -15125.00000     68.556183
    3970           0     -1756.606689    947.339722  -15375.00000     65.639183
    3971           0     -1756.606689    947.339722  -15625.00000     63.104874
    3972           0     -1756.606689    947.339722  -15875.00000     60.784943
    3973           0     -1756.606689    947.339722  -16125.00000     58.908611
    3974           0     -1756.606689    947.339722  -16375.00000     57.350765
    3975           0     -1756.606689    947.339722  -16625.00000     56.238522
    3976           0     -1756.606689    947.339722  -16875.00000     55.475845
    3977           0     -1756.606689    947.339722  -17125.00000     55.094105
    3978           0     -1756.606689    947.339722  -17375.00000     55.004997
    3979           0     -1756.606689    947.339722  -17625.00000     55.175709
    3980           0     -1756.606689    947.339722  -17875.00000     55.525085
    3981           0     -1756.606689    947.339722  -18125.00000     55.994263
    3982           0     -1756.606689    947.339722  -18375.00000     56.516285
    3983           0     -1756.606689    947.339722  -18625.00000     57.032421
    3984           0     -1756.606689    947.339722  -18875.00000     57.492889
    3985           0     -1756.606689    947.339722  -19125.00000     57.850002
    3986           0     -1756.606689    947.339722  -19375.00000     58.069382
    3987           0     -1756.606689    947.339722  -19625.00000     58.116215
    3988           0     -1756.606689    947.339722  -19875.00000     57.968330
    3989           0     -1756.606689    947.339722  -20125.00000     57.602516
    3990           0     -1756.606689    947.339722  -20375.00000     57.006508
    3991           0     -1756.606689    947.339722  -20625.00000     56.167683
    3992           0     -1756.606689    947.339722  -20875.00000     55.083157
    3993           0     -1756.606689    947.339722  -21125.00000     53.751465
    3994           0     -1756.606689    947.339722  -21375.00000     52.180794
    3995           0     -1756.606689    947.339722  -21625.00000     50.383465
    3996           0     -1756.606689    947.339722  -21875.00000     48.382851
    3997           0     -1756.606689    947.339722  -22125.00000     46.209175
    3998           0     -1756.606689    947.339722  -22375.00000     43.906898
    3999           0     -1756.606689    947.339722  -22625.00000     41.528500
    4000           0     -1756.606689    947.339722  -22875.00000     39.143578
    4001           0     -1756.606689    947.339722  -23125.00000     36.826427
    4002           0     -1756.606689    947.339722  -23375.00000     34.664902
    4003           0     -1756.606689    947.339722  -23625.00000     32.744118
    4004           0     -1756.606689    947.339722  -23875.00000     31.134014
    4005           0     -1756.606689    947.339722  -24125.00000     29.923832
    4006           0     -1756.606689    947.339722  -24375.00000     29.083378
    4007           0     -1756.606689    947.339722  -24625.00000     28.767710
    4008           0     -1756.606689    947.339722  -24875.00000     28.754284
    4009           0     -1756.606689    947.339722  -25125.00000     29.250387
    4010           0     -1756.606689    947.339722  -25375.00000     30.104313
    4011           0     -1756.606689    947.339722  -25625.00000     31.843468
    4012           0     -1756.606689    947.339722  -25875.00000     29.220900
    4013           0     -1805.718140    842.019836  -13625.00000     95.990761
    4014           0     -1805.718140    842.019836  -13875.00000     98.147064
    4015           0     -1805.718140    842.019836  -14125.00000     92.252884
    4016           0     -1805.718140    842.019836  -14375.00000     87.356148
    4017           0     -1805.718140    842.019836  -14625.00000     82.540680
    4018           0     -1805.718140    842.019836  -14875.00000     78.207886
    4019           0     -1805.718140    842.019836  -15125.00000     73.649269
    4020           0     -1805.718140    842.019836  -15375.00000     69.695671
    4021           0     -1805.718140    842.019836  -15625.00000     65.821083
    4022           0     -1805.718140    842.019836  -15875.00000     62.471893
    4023           0     -1805.718140    842.019836  -16125.00000     59.452492
    4024           0     -1805.718140    842.019836  -16375.00000     56.937706
    4025           0     -1805.718140    842.019836  -16625.00000     54.869034
    4026           0     -1805.718140    842.019836  -16875.00000     53.267132
    4027           0     -1805.718140    842.019836  -17125.00000     52.104824
    4028           0     -1805.718140    842.019836  -17375.00000     51.319016
    4029           0     -1805.718140    842.019836  -17625.00000     50.875038
    4030           0     -1805.718140    842.019836  -17875.00000     50.676704
    4031           0     -1805.718140    842.019836  -18125.00000     50.680405
    4032           0     -1805.718140    842.019836  -18375.00000     50.790829
    4033           0     -1805.718140    842.019836  -18625.00000     50.965073
    4034           0     -1805.718140    842.019836  -18875.00000     51.124691
    4035           0     -1805.718140    842.019836  -19125.00000     51.234291
    4036           0     -1805.718140    842.019836  -19375.00000     51.235355
    4037           0     -1805.718140    842.019836  -19625.00000     51.102322
    4038           0     -1805.718140    842.019836  -19875.00000     50.793823
    4039           0     -1805.718140    842.019836  -20125.00000     50.294296
    4040           0     -1805.718140    842.019836  -20375.00000     49.575817
    4041           0     -1805.718140    842.019836  -20625.00000     48.632896
    4042           0     -1805.718140    842.019836  -20875.00000     47.448521
    4043           0     -1805.718140    842.019836  -21125.00000     46.028572
    4044           0     -1805.718140    842.019836  -21375.00000     44.366707
    4045           0     -1805.718140    842.019775  -21625.00000     42.483753
    4046           0     -1805.718140    842.019775  -21875.00000     40.387562
    4047           0     -1805.718140    842.019775  -22125.00000     38.121964
    4048           0     -1805.718140    842.019775  -22375.00000     35.717934
    4049           0     -1805.718140    842.019775  -22625.00000     33.257389
    4050           0     -1805.718140    842.019775  -22875.00000     30.812277
    4051           0     -1805.718140    842.019775  -23125.00000     28.524910
    4052           0     -1805.718140    842.019775  -23375.00000     26.527433
    4053           0     -1805.718140    842.019775  -23625.00000     25.021362
    4054           0     -1805.718140    842.019775  -23875.00000     24.161160
    4055           0     -1805.718140    842.019775  -24125.00000     24.080162
    4056           0     -1805.718140    842.019775  -24375.00000     24.811525
    4057           0     -1805.718140    842.019775  -24625.00000     26.247725
    4058           0     -1805.718140    842.019775  -24875.00000     28.331785
    4059           0     -1805.718140    842.019775  -25125.00000     30.832212
    4060           0     -1805.718140    842.019775  -25375.00000     33.660824
    4061           0     -1805.718140    842.019775  -25625.00000     37.392586
    4062           0     -1805.718140    842.019836  -25875.00000     37.217976
    4063           0     -1854.829468    736.699951  -13625.00000    110.630486
    4064           0     -1854.829468    736.699951  -13875.00000    108.028931
    4065           0     -1854.829468    736.699951  -14125.00000    103.535614
    4066           0     -1854.829468    736.699951  -14375.00000     96.200531
    4067           0     -1854.829468    736.699951  -14625.00000     90.880104
    4068           0     -1854.829468    736.699951  -14875.00000     84.925781
    4069           0     -1854.829468    736.699951  -15125.00000     79.747566
    4070           0     -1854.829468    736.699951  -15375.00000     74.628639
    4071           0     -1854.829468    736.699951  -15625.00000     70.065475
    4072           0     -1854.829468    736.699951  -15875.00000     65.913536
    4073           0     -1854.829468    736.699951  -16125.00000     62.324604
    4074           0     -1854.829468    736.699951  -16375.00000     59.343182
    4075           0     -1854.829468    736.699951  -16625.00000     56.952427
    4076           0     -1854.829468    736.699951  -16875.00000     55.203327
    4077           0     -1854.829468    736.699951  -17125.00000     53.992237
    4078           0     -1854.829468    736.699951  -17375.00000     53.314243
    4079           0     -1854.829468    736.699951  -17625.00000     53.030262
    4080           0     -1854.829468    736.699951  -17875.00000     53.088089
    4081           0     -1854.829468    736.699951  -18125.00000     53.353386
    4082           0     -1854.829468    736.699951  -18375.00000     53.758274
    4083           0     -1854.829468    736.699951  -18625.00000     54.195084
    4084           0     -1854.829468    736.699951  -18875.00000     54.602669
    4085           0     -1854.829468    736.699951  -19125.00000     54.903481
    4086           0     -1854.829468    736.699951  -19375.00000     55.051437
    4087           0     -1854.829468    736.699951  -19625.00000     54.993439
    4088           0     -1854.829468    736.699951  -19875.00000     54.699322
    4089           0     -1854.829468    736.699951  -20125.00000     54.133190
    4090           0     -1854.829468    736.699951  -20375.00000     53.279617
    4091           0     -1854.829468    736.699951  -20625.00000     52.114166
    4092           0     -1854.829468    736.699951  -20875.00000     50.635395
    4093           0     -1854.829468    736.699951  -21125.00000     48.826946
    4094           0     -1854.829468    736.699951  -21375.00000     46.702297
    4095           0     -1854.829468    736.699951  -21625.00000     44.253086
    4096           0     -1854.829468    736.699951  -21875.00000     41.512352
    4097           0     -1854.829468    736.699951  -22125.00000     38.486004
    4098           0     -1854.829468    736.699951  -22375.00000     35.239464
    4099           0     -1854.829468    736.699951  -22625.00000     31.816353
    4100           0     -1854.829468    736.699951  -22875.00000     28.351751
    4101           0     -1854.829468    736.699890  -23125.00000     24.995968
    4102           0     -1854.829468    736.699890  -23375.00000     22.055132
    4103           0     -1854.829468    736.699890  -23625.00000     19.913658
    4104           0     -1854.829468    736.699890  -23875.00000     19.087429
    4105           0     -1854.829468    736.699890  -24125.00000     19.811127
    4106           0     -1854.829468    736.699890  -24375.00000     22.105522
    4107           0     -1854.829468    736.699890  -24625.00000     25.352905
    4108           0     -1854.829468    736.699890  -24875.00000     29.502056
    4109           0     -1854.829468    736.699890  -25125.00000     33.705826
    4110           0     -1854.829468    736.699890  -25375.00000     39.312569
    4111           0     -1854.829468    736.699890  -25625.00000     41.482071
    4112           0     -1854.829468    736.699951  -25875.00000     49.339214
    4113           0     -1894.423584    627.916016  -13625.00000    130.087952
    4114           0     -1894.423584    627.916016  -13875.00000    114.591148
    4115           0     -1894.423584    627.916016  -14125.00000    112.847672
    4116           0     -1894.423584    627.916016  -14375.00000    103.747284
    4117           0     -1894.423584    627.916016  -14625.00000     97.206825
    4118           0     -1894.423584    627.916016  -14875.00000     90.302231
    4119           0     -1894.423584    627.916016  -15125.00000     84.366455
    4120           0     -1894.423584    627.916016  -15375.00000     78.386681
    4121           0     -1894.423584    627.916016  -15625.00000     73.356331
    4122           0     -1894.423584    627.916016  -15875.00000     68.621811
    4123           0     -1894.423584    627.916016  -16125.00000     64.816406
    4124           0     -1894.423584    627.916016  -16375.00000     61.595848
    4125           0     -1894.423584    627.916016  -16625.00000     59.276001
    4126           0     -1894.423584    627.916016  -16875.00000     57.646217
    4127           0     -1894.423584    627.916016  -17125.00000     56.777599
    4128           0     -1894.423584    627.916016  -17375.00000     56.493896
    4129           0     -1894.423584    627.916016  -17625.00000     56.715717
    4130           0     -1894.423584    627.916016  -17875.00000     57.287098
    4131           0     -1894.423584    627.916016  -18125.00000     58.078777
    4132           0     -1894.423584    627.916016  -18375.00000     58.970322
    4133           0     -1894.423584    627.916016  -18625.00000     59.843773
    4134           0     -1894.423584    627.916016  -18875.00000     60.616913
    4135           0     -1894.423584    627.916016  -19125.00000     61.202099
    4136           0     -1894.423584    627.916016  -19375.00000     61.546333
    4137           0     -1894.423584    627.916016  -19625.00000     61.591427
    4138           0     -1894.423584    627.916016  -19875.00000     61.302982
    4139           0     -1894.423584    627.916016  -20125.00000     60.647053
    4140           0     -1894.423584    627.916016  -20375.00000     59.599525
    4141           0     -1894.423584    627.916016  -20625.00000     58.146893
    4142           0     -1894.423584    627.916016  -20875.00000     56.269279
    4143           0     -1894.423584    627.916016  -21125.00000     53.972923
    4144           0     -1894.423584    627.916016  -21375.00000     51.237518
    4145           0     -1894.423584    627.916016  -21625.00000     48.092285
    4146           0     -1894.423584    627.916016  -21875.00000     44.513367
    4147           0     -1894.423584    627.916016  -22125.00000     40.562500
    4148           0     -1894.423584    627.916016  -22375.00000     36.213116
    4149           0     -1894.423584    627.916016  -22625.00000     31.584978
    4150           0     -1894.423584    627.916016  -22875.00000     26.672823
    4151           0     -1894.423584    627.916016  -23125.00000     21.745928
    4152           0     -1894.423584    627.916016  -23375.00000     17.000927
    4153           0     -1894.423584    627.916016  -23625.00000     13.376849
    4154           0     -1894.423584    627.916016  -23875.00000     12.148335
    4155           0     -1894.423584    627.916016  -24125.00000     14.457548
    4156           0     -1894.423584    627.916016  -24375.00000     19.038263
    4157           0     -1894.423584    627.916016  -24625.00000     24.837887
    4158           0     -1894.423584    627.916016  -24875.00000     30.994017
    4159           0     -1894.423584    627.916016  -25125.00000     37.317657
    4160           0     -1894.423584    627.916016  -25375.00000     44.618847
    4161           0     -1894.423584    627.916016  -25625.00000     49.740627
    4162           0     -1894.423584    627.916016  -25875.00000     54.810654
    4163           0     -1924.500366    515.667969  -13625.00000    128.332230
    4164           0     -1924.500366    515.667969  -13875.00000    128.368271
    4165           0     -1924.500366    515.667969  -14125.00000    118.734833
    4166           0     -1924.500366    515.667969  -14375.00000    110.060059
    4167           0     -1924.500366    515.667969  -14625.00000    101.968819
    4168           0     -1924.500366    515.667969  -14875.00000     94.883789
    4169           0     -1924.500366    515.667969  -15125.00000     87.823631
    4170           0     -1924.500366    515.667969  -15375.00000     82.005638
    4171           0     -1924.500366    515.667969  -15625.00000     76.747238
    4172           0     -1924.500366    515.667969  -15875.00000     72.661964
    4173           0     -1924.500366    515.667969  -16125.00000     69.500870
    4174           0     -1924.500366    515.667969  -16375.00000     67.433502
    4175           0     -1924.500366    515.667969  -16625.00000     66.338593
    4176           0     -1924.500366    515.667969  -16875.00000     66.111435
    4177           0     -1924.500366    515.667969  -17125.00000     66.626503
    4178           0     -1924.500366    515.667969  -17375.00000     67.661079
    4179           0     -1924.500366    515.667969  -17625.00000     69.091354
    4180           0     -1924.500366    515.667969  -17875.00000     70.699432
    4181           0     -1924.500366    515.667969  -18125.00000     72.391792
    4182           0     -1924.500366    515.667969  -18375.00000     74.003700
    4183           0     -1924.500366    515.667969  -18625.00000     75.475555
    4184           0     -1924.500366    515.667969  -18875.00000     76.695656
    4185           0     -1924.500366    515.667969  -19125.00000     77.628799
    4186           0     -1924.500366    515.667969  -19375.00000     78.202461
    4187           0     -1924.500366    515.667969  -19625.00000     78.396095
    4188           0     -1924.500366    515.667969  -19875.00000     78.163712
    4189           0     -1924.500366    515.667969  -20125.00000     77.492668
    4190           0     -1924.500366    515.667969  -20375.00000     76.355469
    4191           0     -1924.500366    515.667969  -20625.00000     74.743294
    4192           0     -1924.500366    515.667969  -20875.00000     72.643501
    4193           0     -1924.500366    515.667969  -21125.00000     70.048622
    4194           0     -1924.500366    515.667969  -21375.00000     66.961586
    4195           0     -1924.500366    515.667969  -21625.00000     63.374813
    4196           0     -1924.500366    515.667969  -21875.00000     59.312737
    4197           0     -1924.500366    515.667969  -22125.00000     54.768097
    4198           0     -1924.500366    515.667969  -22375.00000     49.801861
    4199           0     -1924.500366    515.667969  -22625.00000     44.415142
    4200           0     -1924.500366    515.667969  -22875.00000     38.745487
    4201           0     -1924.500366    515.667969  -23125.00000     32.853294
    4202           0     -1924.500366    515.667969  -23375.00000     27.096224
    4203           0     -1924.500366    515.667969  -23625.00000     21.905022
    4204           0     -1924.500366    515.667969  -23875.00000     18.453873
    4205           0     -1924.500366    515.667969  -24125.00000     18.235025
    4206           0     -1924.500366    515.667969  -24375.00000     21.525234
    4207           0     -1924.500366    515.667969  -24625.00000     27.553085
    4208           0     -1924.500366    515.667969  -24875.00000     34.503792
    4209           0     -1924.500366    515.667969  -25125.00000     42.137665
    4210           0     -1924.500366    515.667969  -25375.00000     50.519188
    4211           0     -1924.500366    515.667969  -25625.00000     59.171219
    4212           0     -1924.500366    515.667969  -25875.00000     61.020966
    4213           0     -1954.577148    403.420013  -13625.00000    138.613632
    4214           0     -1954.577148    403.420013  -13875.00000    135.093933
    4215           0     -1954.577148    403.420013  -14125.00000    127.064377
    4216           0     -1954.577148    403.420013  -14375.00000    115.858635
    4217           0     -1954.577148    403.420013  -14625.00000    107.925316
    4218           0     -1954.577148    403.420013  -14875.00000     99.362144
    4219           0     -1954.577148    403.420013  -15125.00000     92.249100
    4220           0     -1954.577148    403.420013  -15375.00000     86.101135
    4221           0     -1954.577148    403.420013  -15625.00000     81.446281
    4222           0     -1954.577148    403.420013  -15875.00000     78.335579
    4223           0     -1954.577148    403.420013  -16125.00000     76.697586
    4224           0     -1954.577148    403.420013  -16375.00000     76.525406
    4225           0     -1954.577148    403.420013  -16625.00000     77.433174
    4226           0     -1954.577148    403.420013  -16875.00000     79.299286
    4227           0     -1954.577148    403.420013  -17125.00000     81.702263
    4228           0     -1954.577148    403.420013  -17375.00000     84.513649
    4229           0     -1954.577148    403.420013  -17625.00000     87.420715
    4230           0     -1954.577148    403.420013  -17875.00000     90.339355
    4231           0     -1954.577148    403.420013  -18125.00000     93.072166
    4232           0     -1954.577148    403.420013  -18375.00000     95.574097
    4233           0     -1954.577148    403.420013  -18625.00000     97.727348
    4234           0     -1954.577148    403.420013  -18875.00000     99.509857
    4235           0     -1954.577148    403.420013  -19125.00000    100.851395
    4236           0     -1954.577148    403.420013  -19375.00000    101.741081
    4237           0     -1954.577148    403.420013  -19625.00000    102.135406
    4238           0     -1954.577148    403.420013  -19875.00000    102.027855
    4239           0     -1954.577148    403.420013  -20125.00000    101.389709
    4240           0     -1954.577148    403.420013  -20375.00000    100.215126
    4241           0     -1954.577148    403.420013  -20625.00000     98.484375
    4242           0     -1954.577148    403.420013  -20875.00000     96.190720
    4243           0     -1954.577148    403.420013  -21125.00000     93.322113
    4244           0     -1954.577148    403.420013  -21375.00000     89.870705
    4245           0     -1954.577148    403.420013  -21625.00000     85.835396
    4246           0     -1954.577148    403.420013  -21875.00000     81.208405
    4247           0     -1954.577148    403.420013  -22125.00000     76.009628
    4248           0     -1954.577148    403.420013  -22375.00000     70.235916
    4249           0     -1954.577148    403.420013  -22625.00000     63.952385
    4250           0     -1954.577148    403.420013  -22875.00000     57.179234
    4251           0     -1954.577148    403.420013  -23125.00000     50.092087
    4252           0     -1954.577148    403.420013  -23375.00000     42.825233
    4253           0     -1954.577148    403.420013  -23625.00000     35.884365
    4254           0     -1954.577148    403.419983  -23875.00000     29.966579
    4255           0     -1954.577148    403.419983  -24125.00000     26.499498
    4256           0     -1954.577148    403.419983  -24375.00000     27.109051
    4257           0     -1954.577148    403.419983  -24625.00000     31.435822
    4258           0     -1954.577148    403.419983  -24875.00000     39.085312
    4259           0     -1954.577148    403.419983  -25125.00000     46.954090
    4260           0     -1954.577148    403.419983  -25375.00000     57.693092
    4261           0     -1954.577148    403.419983  -25625.00000     64.091454
    4262           0     -1954.577148    403.420013  -25875.00000     75.708153
    4263           0     -1974.679565    289.413330  -13625.00000    147.481812
    4264           0     -1974.679565    289.413330  -13875.00000    129.623886
    4265           0     -1974.679565    289.413330  -14125.00000    126.620544
    4266           0     -1974.679565    289.413330  -14375.00000    116.093765
    4267           0     -1974.679565    289.413330  -14625.00000    109.031853
    4268           0     -1974.679565    289.413330  -14875.00000    101.433258
    4269           0     -1974.679565    289.413330  -15125.00000     95.861305
    4270           0     -1974.679565    289.413330  -15375.00000     91.143013
    4271           0     -1974.679565    289.413330  -15625.00000     88.462814
    4272           0     -1974.679565    289.413330  -15875.00000     87.189186
    4273           0     -1974.679565    289.413330  -16125.00000     87.543625
    4274           0     -1974.679565    289.413330  -16375.00000     89.019508
    4275           0     -1974.679565    289.413330  -16625.00000     91.423630
    4276           0     -1974.679565    289.413330  -16875.00000     94.372063
    4277           0     -1974.679565    289.413330  -17125.00000     97.635666
    4278           0     -1974.679565    289.413330  -17375.00000    100.981438
    4279           0     -1974.679565    289.413330  -17625.00000    104.255463
    4280           0     -1974.679565    289.413330  -17875.00000    107.335007
    4281           0     -1974.679565    289.413330  -18125.00000    110.134041
    4282           0     -1974.679565    289.413330  -18375.00000    112.592056
    4283           0     -1974.679565    289.413330  -18625.00000    114.664894
    4284           0     -1974.679565    289.413330  -18875.00000    116.322151
    4285           0     -1974.679565    289.413330  -19125.00000    117.542183
    4286           0     -1974.679565    289.413330  -19375.00000    118.306244
    4287           0     -1974.679565    289.413330  -19625.00000    118.603851
    4288           0     -1974.679565    289.413330  -19875.00000    118.417519
    4289           0     -1974.679565    289.413330  -20125.00000    117.742233
    4290           0     -1974.679565    289.413330  -20375.00000    116.555855
    4291           0     -1974.679565    289.413330  -20625.00000    114.857079
    4292           0     -1974.679565    289.413330  -20875.00000    112.615746
    4293           0     -1974.679565    289.413330  -21125.00000    109.835899
    4294           0     -1974.679565    289.413330  -21375.00000    106.477730
    4295           0     -1974.679565    289.413330  -21625.00000    102.556183
    4296           0     -1974.679565    289.413330  -21875.00000     98.022110
    4297           0     -1974.679565    289.413330  -22125.00000     92.913002
    4298           0     -1974.679565    289.413361  -22375.00000     87.175186
    4299           0     -1974.679565    289.413361  -22625.00000     80.892654
    4300           0     -1974.679565    289.413361  -22875.00000     74.025826
    4301           0     -1974.679565    289.413361  -23125.00000     66.758736
    4302           0     -1974.679565    289.413361  -23375.00000     59.136654
    4303           0     -1974.679565    289.413361  -23625.00000     51.582592
    4304           0     -1974.679565    289.413361  -23875.00000     44.492508
    4305           0     -1974.679565    289.413361  -24125.00000     38.859444
    4306           0     -1974.679565    289.413361  -24375.00000     35.984261
    4307           0     -1974.679565    289.413361  -24625.00000     36.694675
    4308           0     -1974.679565    289.413361  -24875.00000     41.595116
    4309           0     -1974.679565    289.413361  -25125.00000     48.285969
    4310           0     -1974.679565    289.413361  -25375.00000     58.341385
    4311           0     -1974.679565    289.413361  -25625.00000     64.442047
    4312           0     -1974.679565    289.413330  -25875.00000     76.771378
    4313           0     -1984.807617    173.647873  -13625.00000    123.494843
    4314           0     -1984.807617    173.647873  -13875.00000    124.728645
    4315           0     -1984.807617    173.647873  -14125.00000    116.885193
    4316           0     -1984.807617    173.647873  -14375.00000    111.256081
    4317           0     -1984.807617    173.647873  -14625.00000    106.089363
    4318           0     -1984.807617    173.647873  -14875.00000    102.375603
    4319           0     -1984.807617    173.647873  -15125.00000     99.912323
    4320           0     -1984.807617    173.647873  -15375.00000     98.979340
    4321           0     -1984.807617    173.647873  -15625.00000     99.269699
    4322           0     -1984.807617    173.647873  -15875.00000    100.641075
    4323           0     -1984.807617    173.647873  -16125.00000    102.749939
    4324           0     -1984.807617    173.647873  -16375.00000    105.352310
    4325           0     -1984.807617    173.647873  -16625.00000    108.195541
    4326           0     -1984.807617    173.647873  -16875.00000    111.096375
    4327           0     -1984.807617    173.647873  -17125.00000    113.918213
    4328           0     -1984.807617    173.647873  -17375.00000    116.558151
    4329           0     -1984.807617    173.647888  -17625.00000    118.959328
    4330           0     -1984.807617    173.647888  -17875.00000    121.073723
    4331           0     -1984.807617    173.647888  -18125.00000    122.886154
    4332           0     -1984.807617    173.647888  -18375.00000    124.378204
    4333           0     -1984.807617    173.647888  -18625.00000    125.551476
    4334           0     -1984.807617    173.647888  -18875.00000    126.400856
    4335           0     -1984.807617    173.647888  -19125.00000    126.930573
    4336           0     -1984.807617    173.647888  -19375.00000    127.139503
    4337           0     -1984.807617    173.647873  -19625.00000    127.026787
    4338           0     -1984.807617    173.647873  -19875.00000    126.590385
    4339           0     -1984.807617    173.647873  -20125.00000    125.820038
    4340           0     -1984.807617    173.647873  -20375.00000    124.710762
    4341           0     -1984.807617    173.647888  -20625.00000    123.240166
    4342           0     -1984.807617    173.647888  -20875.00000    121.400352
    4343           0     -1984.807617    173.647888  -21125.00000    119.155151
    4344           0     -1984.807617    173.647888  -21375.00000    116.496056
    4345           0     -1984.807617    173.647888  -21625.00000    113.372429
    4346           0     -1984.807617    173.647888  -21875.00000    109.780579
    4347           0     -1984.807617    173.647888  -22125.00000    105.657013
    4348           0     -1984.807617    173.647888  -22375.00000    101.013687
    4349           0     -1984.807617    173.647888  -22625.00000     95.781685
    4350           0     -1984.807617    173.647888  -22875.00000     90.009789
    4351           0     -1984.807617    173.647888  -23125.00000     83.646591
    4352           0     -1984.807617    173.647888  -23375.00000     76.821587
    4353           0     -1984.807617    173.647888  -23625.00000     69.571671
    4354           0     -1984.807617    173.647888  -23875.00000     62.206963
    4355           0     -1984.807617    173.647888  -24125.00000     55.078022
    4356           0     -1984.807617    173.647888  -24375.00000     48.892441
    4357           0     -1984.807617    173.647888  -24625.00000     44.812382
    4358           0     -1984.807617    173.647888  -24875.00000     43.824795
    4359           0     -1984.807617    173.647903  -25125.00000     46.498734
    4360           0     -1984.807617    173.647903  -25375.00000     53.261135
    4361           0     -1984.807617    173.647903  -25625.00000     60.820126
    4362           0     -1984.807617    173.647888  -25875.00000     62.809532
    4363           0     -1994.935791     57.882427  -13625.00000    107.073273
    4364           0     -1994.935791     57.882427  -13875.00000    115.886673
    4365           0     -1994.935791     57.882427  -14125.00000    110.593697
    4366           0     -1994.935791     57.882427  -14375.00000    106.206390
    4367           0     -1994.935791     57.882427  -14625.00000    103.902565
    4368           0     -1994.935791     57.882427  -14875.00000    103.761276
    4369           0     -1994.935791     57.882427  -15125.00000    104.994232
    4370           0     -1994.935791     57.882427  -15375.00000    107.851074
    4371           0     -1994.935791     57.882427  -15625.00000    111.220924
    4372           0     -1994.935791     57.882427  -15875.00000    115.032738
    4373           0     -1994.935791     57.882427  -16125.00000    118.731163
    4374           0     -1994.935791     57.882427  -16375.00000    122.273453
    4375           0     -1994.935791     57.882427  -16625.00000    125.424866
    4376           0     -1994.935791     57.882427  -16875.00000    128.208374
    4377           0     -1994.935791     57.882427  -17125.00000    130.540146
    4378           0     -1994.935791     57.882427  -17375.00000    132.475464
    4379           0     -1994.935791     57.882427  -17625.00000    133.998230
    4380           0     -1994.935791     57.882427  -17875.00000    135.170700
    4381           0     -1994.935791     57.882427  -18125.00000    136.004150
    4382           0     -1994.935791     57.882427  -18375.00000    136.553787
    4383           0     -1994.935791     57.882427  -18625.00000    136.838242
    4384           0     -1994.935791     57.882427  -18875.00000    136.899017
    4385           0     -1994.935791     57.882427  -19125.00000    136.752167
    4386           0     -1994.935791     57.882427  -19375.00000    136.422791
    4387           0     -1994.935791     57.882423  -19625.00000    135.919693
    4388           0     -1994.935791     57.882420  -19875.00000    135.250244
    4389           0     -1994.935791     57.882420  -20125.00000    134.413696
    4390           0     -1994.935791     57.882420  -20375.00000    133.398895
    4391           0     -1994.935791     57.882420  -20625.00000    132.194473
    4392           0     -1994.935791     57.882420  -20875.00000    130.769531
    4393           0     -1994.935791     57.882420  -21125.00000    129.101807
    4394           0     -1994.935791     57.882420  -21375.00000    127.139259
    4395           0     -1994.935791     57.882420  -21625.00000    124.849663
    4396           0     -1994.935791     57.882420  -21875.00000    122.158768
    4397           0     -1994.935791     57.882420  -22125.00000    119.027542
    4398           0     -1994.935791     57.882420  -22375.00000    115.360252
    4399           0     -1994.935791     57.882420  -22625.00000    111.118721
    4400           0     -1994.935791     57.882420  -22875.00000    106.191124
    4401           0     -1994.935791     57.882420  -23125.00000    100.557037
    4402           0     -1994.935791     57.882420  -23375.00000     94.106926
    4403           0     -1994.935791     57.882420  -23625.00000     86.879738
    4404           0     -1994.935791     57.882420  -23875.00000     78.833954
    4405           0     -1994.935791     57.882420  -24125.00000     70.202271
    4406           0     -1994.935791     57.882420  -24375.00000     61.269192
    4407           0     -1994.935791     57.882420  -24625.00000     52.964352
    4408           0     -1994.935791     57.882420  -24875.00000     46.770874
    4409           0     -1994.935791     57.882420  -25125.00000     44.444099
    4410           0     -1994.935791     57.882420  -25375.00000     48.847725
    4411           0     -1994.935791     57.882420  -25625.00000     53.420692
    4412           0     -1994.935791     57.882423  -25875.00000     56.752949
    4413           0     -1997.493652    -50.000221  -13625.00000     96.968765
    4414           0     -1997.493652    -50.000221  -13875.00000    104.303299
    4415           0     -1997.493652    -50.000221  -14125.00000    102.976501
    4416           0     -1997.493652    -50.000221  -14375.00000    101.665756
    4417           0     -1997.493652    -50.000221  -14625.00000    101.832802
    4418           0     -1997.493652    -50.000221  -14875.00000    103.556267
    4419           0     -1997.493652    -50.000221  -15125.00000    106.604645
    4420           0     -1997.493652    -50.000221  -15375.00000    110.233086
    4421           0     -1997.493652    -50.000221  -15625.00000    114.001259
    4422           0     -1997.493652    -50.000221  -15875.00000    117.424385
    4423           0     -1997.493652    -50.000221  -16125.00000    120.392143
    4424           0     -1997.493652    -50.000221  -16375.00000    122.723045
    4425           0     -1997.493652    -50.000221  -16625.00000    124.472046
    4426           0     -1997.493652    -50.000221  -16875.00000    125.611214
    4427           0     -1997.493652    -50.000221  -17125.00000    126.243980
    4428           0     -1997.493652    -50.000221  -17375.00000    126.403885
    4429           0     -1997.493652    -50.000221  -17625.00000    126.195747
    4430           0     -1997.493652    -50.000221  -17875.00000    125.670807
    4431           0     -1997.493652    -50.000221  -18125.00000    124.918678
    4432           0     -1997.493652    -50.000221  -18375.00000    123.988068
    4433           0     -1997.493652    -50.000221  -18625.00000    122.948738
    4434           0     -1997.493652    -50.000221  -18875.00000    121.837944
    4435           0     -1997.493652    -50.000221  -19125.00000    120.705254
    4436           0     -1997.493652    -50.000221  -19375.00000    119.572662
    4437           0     -1997.493652    -50.000221  -19625.00000    118.470795
    4438           0     -1997.493652    -50.000221  -19875.00000    117.404266
    4439           0     -1997.493652    -50.000221  -20125.00000    116.385651
    4440           0     -1997.493652    -50.000221  -20375.00000    115.400414
    4441           0     -1997.493652    -50.000221  -20625.00000    114.443153
    4442           0     -1997.493652    -50.000221  -20875.00000    113.477814
    4443           0     -1997.493652    -50.000221  -21125.00000    112.480377
    4444           0     -1997.493652    -50.000221  -21375.00000    111.390396
    4445           0     -1997.493652    -50.000221  -21625.00000    110.164368
    4446           0     -1997.493652    -50.000221  -21875.00000    108.714783
    4447           0     -1997.493652    -50.000221  -22125.00000    106.978920
    4448           0     -1997.493652    -50.000221  -22375.00000    104.841095
    4449           0     -1997.493652    -50.000221  -22625.00000    102.222763
    4450           0     -1997.493652    -50.000221  -22875.00000     98.983208
    4451           0     -1997.493652    -50.000221  -23125.00000     95.038704
    4452           0     -1997.493652    -50.000221  -23375.00000     90.237877
    4453           0     -1997.493652    -50.000221  -23625.00000     84.519867
    4454           0     -1997.493652    -50.000221  -23875.00000     77.775261
    4455           0     -1997.493652    -50.000221  -24125.00000     70.048355
    4456           0     -1997.493652    -50.000221  -24375.00000     61.489491
    4457           0     -1997.493652    -50.000221  -24625.00000     52.506294
    4458           0     -1997.493652    -50.000221  -24875.00000     44.427696
    4459           0     -1997.493652    -50.000221  -25125.00000     38.576401
    4460           0     -1997.493652    -50.000221  -25375.00000     38.379543
    4461           0     -1997.493652    -50.000221  -25625.00000     39.990646
    4462           0     -1997.493652    -50.000221  -25875.00000     43.151161
    4463           0     -1992.480957   -150.000076  -13625.00000     90.708977
    4464           0     -1992.480957   -150.000076  -13875.00000     98.662727
    4465           0     -1992.480957   -150.000076  -14125.00000     98.138634
    4466           0     -1992.480957   -150.000076  -14375.00000    100.284241
    4467           0     -1992.480957   -150.000076  -14625.00000    101.094597
    4468           0     -1992.480957   -150.000076  -14875.00000    102.807365
    4469           0     -1992.480957   -150.000076  -15125.00000    104.557869
    4470           0     -1992.480957   -150.000076  -15375.00000    106.245705
    4471           0     -1992.480957   -150.000076  -15625.00000    107.513542
    4472           0     -1992.480957   -150.000076  -15875.00000    108.232788
    4473           0     -1992.480957   -150.000076  -16125.00000    108.309570
    4474           0     -1992.480957   -150.000076  -16375.00000    107.735184
    4475           0     -1992.480957   -150.000076  -16625.00000    106.570015
    4476           0     -1992.480957   -150.000076  -16875.00000    104.873474
    4477           0     -1992.480957   -150.000076  -17125.00000    102.758720
    4478           0     -1992.480957   -150.000076  -17375.00000    100.306168
    4479           0     -1992.480957   -150.000076  -17625.00000     97.628372
    4480           0     -1992.480957   -150.000076  -17875.00000     94.802078
    4481           0     -1992.480957   -150.000076  -18125.00000     91.918625
    4482           0     -1992.480957   -150.000076  -18375.00000     89.042686
    4483           0     -1992.480957   -150.000076  -18625.00000     86.239777
    4484           0     -1992.480957   -150.000076  -18875.00000     83.562332
    4485           0     -1992.480957   -150.000076  -19125.00000     81.051613
    4486           0     -1992.480957   -150.000076  -19375.00000     78.750938
    4487           0     -1992.480957   -150.000076  -19625.00000     76.679779
    4488           0     -1992.480957   -150.000076  -19875.00000     74.875412
    4489           0     -1992.480957   -150.000076  -20125.00000     73.335518
    4490           0     -1992.480957   -150.000076  -20375.00000     72.091888
    4491           0     -1992.480957   -150.000076  -20625.00000     71.116135
    4492           0     -1992.480957   -150.000076  -20875.00000     70.431702
    4493           0     -1992.480957   -150.000076  -21125.00000     69.975708
    4494           0     -1992.480957   -150.000076  -21375.00000     69.758354
    4495           0     -1992.480957   -150.000076  -21625.00000     69.672600
    4496           0     -1992.480957   -150.000076  -21875.00000     69.711678
    4497           0     -1992.480957   -150.000076  -22125.00000     69.717392
    4498           0     -1992.480957   -150.000076  -22375.00000     69.666855
    4499           0     -1992.480957   -150.000076  -22625.00000     69.350113
    4500           0     -1992.480957   -150.000076  -22875.00000     68.735893
    4501           0     -1992.480957   -150.000076  -23125.00000     67.573097
    4502           0     -1992.480957   -150.000076  -23375.00000     65.839996
    4503           0     -1992.480957   -150.000076  -23625.00000     63.275040
    4504           0     -1992.480957   -150.000076  -23875.00000     59.899815
    4505           0     -1992.480957   -150.000076  -24125.00000     55.504883
    4506           0     -1992.480957   -150.000076  -24375.00000     50.225796
    4507           0     -1992.480957   -150.000076  -24625.00000     43.992382
    4508           0     -1992.480957   -150.000076  -24875.00000     37.354294
    4509           0     -1992.480957   -150.000076  -25125.00000     30.530746
    4510           0     -1992.480957   -150.000076  -25375.00000     24.948465
    4511           0     -1992.480957   -150.000076  -25625.00000     23.176353
    4512           0     -1992.480957   -150.000076  -25875.00000     19.326630
    4513           0     -1979.795044   -273.648315  -13625.00000    119.955811
    4514           0     -1979.795044   -273.648315  -13875.00000    121.066582
    4515           0     -1979.795044   -273.648315  -14125.00000    118.063812
    4516           0     -1979.795044   -273.648315  -14375.00000    114.527382
    4517           0     -1979.795044   -273.648315  -14625.00000    113.823792
    4518           0     -1979.795044   -273.648315  -14875.00000    114.360077
    4519           0     -1979.795044   -273.648315  -15125.00000    116.128128
    4520           0     -1979.795044   -273.648315  -15375.00000    118.052795
    4521           0     -1979.795044   -273.648315  -15625.00000    120.041199
    4522           0     -1979.795044   -273.648315  -15875.00000    121.543877
    4523           0     -1979.795044   -273.648315  -16125.00000    122.557800
    4524           0     -1979.795044   -273.648315  -16375.00000    122.918587
    4525           0     -1979.795044   -273.648315  -16625.00000    122.701942
    4526           0     -1979.795044   -273.648315  -16875.00000    121.919273
    4527           0     -1979.795044   -273.648315  -17125.00000    120.675926
    4528           0     -1979.795044   -273.648315  -17375.00000    119.043922
    4529           0     -1979.795044   -273.648315  -17625.00000    117.126175
    4530           0     -1979.795044   -273.648315  -17875.00000    115.004211
    4531           0     -1979.795044   -273.648315  -18125.00000    112.764992
    4532           0     -1979.795044   -273.648315  -18375.00000    110.479675
    4533           0     -1979.795044   -273.648315  -18625.00000    108.215424
    4534           0     -1979.795044   -273.648315  -18875.00000    106.026550
    4535           0     -1979.795044   -273.648315  -19125.00000    103.960342
    4536           0     -1979.795044   -273.648315  -19375.00000    102.052803
    4537           0     -1979.795044   -273.648315  -19625.00000    100.331978
    4538           0     -1979.795044   -273.648315  -19875.00000     98.815239
    4539           0     -1979.795044   -273.648315  -20125.00000     97.511078
    4540           0     -1979.795044   -273.648315  -20375.00000     96.417099
    4541           0     -1979.795044   -273.648315  -20625.00000     95.520576
    4542           0     -1979.795044   -273.648315  -20875.00000     94.797081
    4543           0     -1979.795044   -273.648315  -21125.00000     94.209785
    4544           0     -1979.795044   -273.648315  -21375.00000     93.709167
    4545           0     -1979.795044   -273.648315  -21625.00000     93.231392
    4546           0     -1979.795044   -273.648315  -21875.00000     92.698914
    4547           0     -1979.795044   -273.648315  -22125.00000     92.019310
    4548           0     -1979.795044   -273.648315  -22375.00000     91.085869
    4549           0     -1979.795044   -273.648315  -22625.00000     89.779762
    4550           0     -1979.795044   -273.648315  -22875.00000     87.968964
    4551           0     -1979.795044   -273.648315  -23125.00000     85.519363
    4552           0     -1979.795044   -273.648315  -23375.00000     82.290878
    4553           0     -1979.795044   -273.648315  -23625.00000     78.163361
    4554           0     -1979.795044   -273.648315  -23875.00000     73.038620
    4555           0     -1979.795044   -273.648315  -24125.00000     66.867676
    4556           0     -1979.795044   -273.648315  -24375.00000     59.723621
    4557           0     -1979.795044   -273.648315  -24625.00000     51.706184
    4558           0     -1979.795044   -273.648315  -24875.00000     43.414959
    4559           0     -1979.795044   -273.648315  -25125.00000     35.344444
    4560           0     -1979.795044   -273.648315  -25375.00000     29.446550
    4561           0     -1979.795044   -273.648315  -25625.00000     25.946310
    4562           0     -1979.795044   -273.648315  -25875.00000     24.605530
    4563           0     -1954.577026   -403.420563  -13625.00000    141.872391
    4564           0     -1954.577026   -403.420563  -13875.00000    150.199188
    4565           0     -1954.577026   -403.420563  -14125.00000    143.635712
    4566           0     -1954.577026   -403.420563  -14375.00000    133.212845
    4567           0     -1954.577026   -403.420563  -14625.00000    129.676651
    4568           0     -1954.577026   -403.420563  -14875.00000    126.646912
    4569           0     -1954.577026   -403.420563  -15125.00000    126.028122
    4570           0     -1954.577026   -403.420563  -15375.00000    126.408936
    4571           0     -1954.577026   -403.420563  -15625.00000    127.640984
    4572           0     -1954.577026   -403.420563  -15875.00000    129.122498
    4573           0     -1954.577026   -403.420563  -16125.00000    130.728836
    4574           0     -1954.577026   -403.420563  -16375.00000    132.182343
    4575           0     -1954.577026   -403.420563  -16625.00000    133.441620
    4576           0     -1954.577026   -403.420563  -16875.00000    134.405716
    4577           0     -1954.577026   -403.420563  -17125.00000    135.084473
    4578           0     -1954.577026   -403.420563  -17375.00000    135.463928
    4579           0     -1954.577026   -403.420563  -17625.00000    135.579498
    4580           0     -1954.577026   -403.420563  -17875.00000    135.454163
    4581           0     -1954.577026   -403.420563  -18125.00000    135.129929
    4582           0     -1954.577026   -403.420563  -18375.00000    134.639709
    4583           0     -1954.577026   -403.420563  -18625.00000    134.020401
    4584           0     -1954.577026   -403.420563  -18875.00000    133.300934
    4585           0     -1954.577026   -403.420563  -19125.00000    132.507309
    4586           0     -1954.577026   -403.420563  -19375.00000    131.657959
    4587           0     -1954.577026   -403.420563  -19625.00000    130.765259
    4588           0     -1954.577026   -403.420563  -19875.00000    129.834106
    4589           0     -1954.577026   -403.420563  -20125.00000    128.861969
    4590           0     -1954.577026   -403.420563  -20375.00000    127.838341
    4591           0     -1954.577026   -403.420563  -20625.00000    126.744682
    4592           0     -1954.577026   -403.420563  -20875.00000    125.553925
    4593           0     -1954.577026   -403.420563  -21125.00000    124.230339
    4594           0     -1954.577026   -403.420563  -21375.00000    122.729332
    4595           0     -1954.577026   -403.420563  -21625.00000    120.996986
    4596           0     -1954.577026   -403.420563  -21875.00000    118.971512
    4597           0     -1954.577026   -403.420563  -22125.00000    116.580971
    4598           0     -1954.577026   -403.420563  -22375.00000    113.749214
    4599           0     -1954.577026   -403.420563  -22625.00000    110.389259
    4600           0     -1954.577026   -403.420563  -22875.00000    106.419098
    4601           0     -1954.577026   -403.420563  -23125.00000    101.744980
    4602           0     -1954.577026   -403.420563  -23375.00000     96.298798
    4603           0     -1954.577026   -403.420563  -23625.00000     90.001396
    4604           0     -1954.577026   -403.420563  -23875.00000     82.851700
    4605           0     -1954.577026   -403.420563  -24125.00000     74.864815
    4606           0     -1954.577026   -403.420563  -24375.00000     66.287094
    4607           0     -1954.577026   -403.420563  -24625.00000     57.582241
    4608           0     -1954.577026   -403.420563  -24875.00000     49.911453
    4609           0     -1954.577026   -403.420563  -25125.00000     44.616024
    4610           0     -1954.577026   -403.420563  -25375.00000     45.099407
    4611           0     -1954.577026   -403.420563  -25625.00000     47.076908
    4612           0     -1954.577026   -403.420563  -25875.00000     47.124344
    4613           0     -1924.500244   -515.668518  -13625.00000    166.694931
    4614           0     -1924.500244   -515.668518  -13875.00000    167.060120
    4615           0     -1924.500244   -515.668518  -14125.00000    157.580048
    4616           0     -1924.500244   -515.668518  -14375.00000    147.524094
    4617           0     -1924.500244   -515.668518  -14625.00000    139.150208
    4618           0     -1924.500244   -515.668518  -14875.00000    132.644287
    4619           0     -1924.500244   -515.668518  -15125.00000    126.753426
    4620           0     -1924.500244   -515.668518  -15375.00000    123.086586
    4621           0     -1924.500244   -515.668518  -15625.00000    120.256424
    4622           0     -1924.500244   -515.668518  -15875.00000    118.979317
    4623           0     -1924.500244   -515.668518  -16125.00000    118.374527
    4624           0     -1924.500244   -515.668518  -16375.00000    118.626129
    4625           0     -1924.500244   -515.668518  -16625.00000    119.210503
    4626           0     -1924.500244   -515.668518  -16875.00000    120.142181
    4627           0     -1924.500244   -515.668518  -17125.00000    121.135757
    4628           0     -1924.500244   -515.668518  -17375.00000    122.178986
    4629           0     -1924.500244   -515.668518  -17625.00000    123.129486
    4630           0     -1924.500244   -515.668518  -17875.00000    123.983292
    4631           0     -1924.500244   -515.668518  -18125.00000    124.674644
    4632           0     -1924.500244   -515.668518  -18375.00000    125.208344
    4633           0     -1924.500244   -515.668518  -18625.00000    125.555412
    4634           0     -1924.500244   -515.668518  -18875.00000    125.723282
    4635           0     -1924.500244   -515.668518  -19125.00000    125.697533
    4636           0     -1924.500244   -515.668518  -19375.00000    125.483047
    4637           0     -1924.500244   -515.668518  -19625.00000    125.067879
    4638           0     -1924.500244   -515.668518  -19875.00000    124.450989
    4639           0     -1924.500244   -515.668518  -20125.00000    123.616364
    4640           0     -1924.500244   -515.668518  -20375.00000    122.555229
    4641           0     -1924.500244   -515.668518  -20625.00000    121.243904
    4642           0     -1924.500244   -515.668518  -20875.00000    119.665314
    4643           0     -1924.500244   -515.668518  -21125.00000    117.786499
    4644           0     -1924.500244   -515.668518  -21375.00000    115.582878
    4645           0     -1924.500244   -515.668518  -21625.00000    113.012451
    4646           0     -1924.500244   -515.668518  -21875.00000    110.046104
    4647           0     -1924.500244   -515.668518  -22125.00000    106.636185
    4648           0     -1924.500244   -515.668518  -22375.00000    102.756264
    4649           0     -1924.500244   -515.668518  -22625.00000     98.362755
    4650           0     -1924.500244   -515.668579  -22875.00000     93.447128
    4651           0     -1924.500244   -515.668579  -23125.00000     87.994720
    4652           0     -1924.500244   -515.668579  -23375.00000     82.046494
    4653           0     -1924.500244   -515.668579  -23625.00000     75.680305
    4654           0     -1924.500244   -515.668579  -23875.00000     69.053360
    4655           0     -1924.500244   -515.668579  -24125.00000     62.504314
    4656           0     -1924.500244   -515.668579  -24375.00000     56.430202
    4657           0     -1924.500244   -515.668579  -24625.00000     51.757248
    4658           0     -1924.500244   -515.668579  -24875.00000     49.197636
    4659           0     -1924.500244   -515.668579  -25125.00000     49.238132
    4660           0     -1924.500244   -515.668579  -25375.00000     53.580223
    4661           0     -1924.500244   -515.668579  -25625.00000     57.983128
    4662           0     -1924.500244   -515.668579  -25875.00000     58.631245
    4663           0     -1894.423340   -627.916504  -13625.00000    200.909988
    4664           0     -1894.423340   -627.916504  -13875.00000    177.241623
    4665           0     -1894.423340   -627.916504  -14125.00000    173.970688
    4666           0     -1894.423340   -627.916504  -14375.00000    159.218155
    4667           0     -1894.423340   -627.916504  -14625.00000    148.576889
    4668           0     -1894.423340   -627.916504  -14875.00000    137.028320
    4669           0     -1894.423340   -627.916504  -15125.00000    127.810371
    4670           0     -1894.423340   -627.916504  -15375.00000    119.155304
    4671           0     -1894.423340   -627.916504  -15625.00000    112.962646
    4672           0     -1894.423340   -627.916504  -15875.00000    108.017151
    4673           0     -1894.423340   -627.916504  -16125.00000    105.132538
    4674           0     -1894.423340   -627.916504  -16375.00000    103.458046
    4675           0     -1894.423340   -627.916504  -16625.00000    103.167625
    4676           0     -1894.423340   -627.916504  -16875.00000    103.663795
    4677           0     -1894.423340   -627.916504  -17125.00000    104.879814
    4678           0     -1894.423340   -627.916504  -17375.00000    106.436234
    4679           0     -1894.423340   -627.916504  -17625.00000    108.231384
    4680           0     -1894.423340   -627.916504  -17875.00000    110.048119
    4681           0     -1894.423340   -627.916504  -18125.00000    111.811447
    4682           0     -1894.423340   -627.916504  -18375.00000    113.404816
    4683           0     -1894.423340   -627.916504  -18625.00000    114.782852
    4684           0     -1894.423340   -627.916504  -18875.00000    115.883911
    4685           0     -1894.423340   -627.916504  -19125.00000    116.681854
    4686           0     -1894.423340   -627.916504  -19375.00000    117.141678
    4687           0     -1894.423340   -627.916504  -19625.00000    117.246964
    4688           0     -1894.423340   -627.916504  -19875.00000    116.973206
    4689           0     -1894.423340   -627.916504  -20125.00000    116.307449
    4690           0     -1894.423340   -627.916504  -20375.00000    115.227043
    4691           0     -1894.423340   -627.916504  -20625.00000    113.719612
    4692           0     -1894.423340   -627.916504  -20875.00000    111.759911
    4693           0     -1894.423340   -627.916504  -21125.00000    109.336426
    4694           0     -1894.423340   -627.916504  -21375.00000    106.420128
    4695           0     -1894.423340   -627.916504  -21625.00000    103.004105
    4696           0     -1894.423340   -627.916504  -21875.00000     99.057610
    4697           0     -1894.423340   -627.916504  -22125.00000     94.587738
    4698           0     -1894.423340   -627.916504  -22375.00000     89.570313
    4699           0     -1894.423340   -627.916504  -22625.00000     84.046608
    4700           0     -1894.423340   -627.916565  -22875.00000     78.023438
    4701           0     -1894.423340   -627.916565  -23125.00000     71.621712
    4702           0     -1894.423340   -627.916565  -23375.00000     64.952812
    4703           0     -1894.423340   -627.916565  -23625.00000     58.323719
    4704           0     -1894.423340   -627.916565  -23875.00000     52.161846
    4705           0     -1894.423340   -627.916565  -24125.00000     47.133873
    4706           0     -1894.423340   -627.916565  -24375.00000     44.286701
    4707           0     -1894.423340   -627.916565  -24625.00000     44.096210
    4708           0     -1894.423340   -627.916565  -24875.00000     47.359833
    4709           0     -1894.423340   -627.916565  -25125.00000     52.360329
    4710           0     -1894.423340   -627.916565  -25375.00000     60.609802
    4711           0     -1894.423340   -627.916565  -25625.00000     64.949425
    4712           0     -1894.423340   -627.916565  -25875.00000     76.251648
    4713           0     -1854.829224   -736.700439  -13625.00000    194.203339
    4714           0     -1854.829224   -736.700439  -13875.00000    187.587250
    4715           0     -1854.829224   -736.700439  -14125.00000    178.414963
    4716           0     -1854.829224   -736.700439  -14375.00000    162.782272
    4717           0     -1854.829224   -736.700439  -14625.00000    151.662979
    4718           0     -1854.829224   -736.700439  -14875.00000    138.851044
    4719           0     -1854.829224   -736.700439  -15125.00000    127.997826
    4720           0     -1854.829224   -736.700439  -15375.00000    117.606155
    4721           0     -1854.829224   -736.700439  -15625.00000    109.066429
    4722           0     -1854.829224   -736.700439  -15875.00000    101.799263
    4723           0     -1854.829224   -736.700439  -16125.00000     96.328568
    4724           0     -1854.829224   -736.700439  -16375.00000     92.354752
    4725           0     -1854.829224   -736.700439  -16625.00000     89.900871
    4726           0     -1854.829224   -736.700439  -16875.00000     88.711548
    4727           0     -1854.829224   -736.700439  -17125.00000     88.560509
    4728           0     -1854.829224   -736.700439  -17375.00000     89.205605
    4729           0     -1854.829224   -736.700439  -17625.00000     90.375328
    4730           0     -1854.829224   -736.700439  -17875.00000     91.883652
    4731           0     -1854.829224   -736.700439  -18125.00000     93.516289
    4732           0     -1854.829224   -736.700439  -18375.00000     95.154961
    4733           0     -1854.829224   -736.700439  -18625.00000     96.657234
    4734           0     -1854.829224   -736.700439  -18875.00000     97.955490
    4735           0     -1854.829224   -736.700439  -19125.00000     98.960892
    4736           0     -1854.829224   -736.700439  -19375.00000     99.635887
    4737           0     -1854.829224   -736.700439  -19625.00000     99.925194
    4738           0     -1854.829224   -736.700439  -19875.00000     99.806618
    4739           0     -1854.829224   -736.700439  -20125.00000     99.244553
    4740           0     -1854.829224   -736.700439  -20375.00000     98.223534
    4741           0     -1854.829224   -736.700439  -20625.00000     96.720039
    4742           0     -1854.829224   -736.700439  -20875.00000     94.721245
    4743           0     -1854.829224   -736.700439  -21125.00000     92.213226
    4744           0     -1854.829224   -736.700439  -21375.00000     89.185104
    4745           0     -1854.829224   -736.700439  -21625.00000     85.635155
    4746           0     -1854.829224   -736.700439  -21875.00000     81.557396
    4747           0     -1854.829224   -736.700439  -22125.00000     76.972008
    4748           0     -1854.829224   -736.700439  -22375.00000     71.887856
    4749           0     -1854.829224   -736.700439  -22625.00000     66.371063
    4750           0     -1854.829224   -736.700439  -22875.00000     60.476299
    4751           0     -1854.829224   -736.700439  -23125.00000     54.377357
    4752           0     -1854.829224   -736.700439  -23375.00000     48.278839
    4753           0     -1854.829224   -736.700439  -23625.00000     42.624241
    4754           0     -1854.829224   -736.700439  -23875.00000     38.073547
    4755           0     -1854.829224   -736.700439  -24125.00000     35.482201
    4756           0     -1854.829224   -736.700439  -24375.00000     35.941174
    4757           0     -1854.829224   -736.700439  -24625.00000     39.122570
    4758           0     -1854.829224   -736.700439  -24875.00000     45.326283
    4759           0     -1854.829224   -736.700439  -25125.00000     51.902435
    4760           0     -1854.829224   -736.700439  -25375.00000     61.421486
    4761           0     -1854.829224   -736.700439  -25625.00000     66.907532
    4762           0     -1854.829224   -736.700439  -25875.00000     76.389969
    4763           0     -1805.717773   -842.020264  -13625.00000    181.225769
    4764           0     -1805.717773   -842.020264  -13875.00000    184.873016
    4765           0     -1805.717773   -842.020264  -14125.00000    170.968567
    4766           0     -1805.717773   -842.020264  -14375.00000    159.063385
    4767           0     -1805.717773   -842.020264  -14625.00000    147.553009
    4768           0     -1805.717773   -842.020264  -14875.00000    137.105545
    4769           0     -1805.717773   -842.020264  -15125.00000    126.029045
    4770           0     -1805.717773   -842.020264  -15375.00000    116.511566
    4771           0     -1805.717773   -842.020264  -15625.00000    107.037567
    4772           0     -1805.717773   -842.020264  -15875.00000     98.949463
    4773           0     -1805.717773   -842.020264  -16125.00000     91.489594
    4774           0     -1805.717773   -842.020264  -16375.00000     85.346077
    4775           0     -1805.717773   -842.020264  -16625.00000     80.154099
    4776           0     -1805.717773   -842.020264  -16875.00000     76.196632
    4777           0     -1805.717773   -842.020264  -17125.00000     73.251320
    4778           0     -1805.717773   -842.020264  -17375.00000     71.327820
    4779           0     -1805.717773   -842.020264  -17625.00000     70.226395
    4780           0     -1805.717773   -842.020264  -17875.00000     69.804382
    4781           0     -1805.717773   -842.020264  -18125.00000     69.876556
    4782           0     -1805.717773   -842.020264  -18375.00000     70.264214
    4783           0     -1805.717773   -842.020264  -18625.00000     70.823654
    4784           0     -1805.717773   -842.020264  -18875.00000     71.405411
    4785           0     -1805.717773   -842.020264  -19125.00000     71.914146
    4786           0     -1805.717773   -842.020264  -19375.00000     72.244263
    4787           0     -1805.717773   -842.020264  -19625.00000     72.337959
    4788           0     -1805.717773   -842.020264  -19875.00000     72.126488
    4789           0     -1805.717773   -842.020264  -20125.00000     71.576210
    4790           0     -1805.717773   -842.020264  -20375.00000     70.645439
    4791           0     -1805.717773   -842.020264  -20625.00000     69.315147
    4792           0     -1805.717773   -842.020264  -20875.00000     67.564529
    4793           0     -1805.717773   -842.020264  -21125.00000     65.384140
    4794           0     -1805.717773   -842.020264  -21375.00000     62.773113
    4795           0     -1805.717773   -842.020264  -21625.00000     59.731052
    4796           0     -1805.717773   -842.020264  -21875.00000     56.282825
    4797           0     -1805.717773   -842.020264  -22125.00000     52.443275
    4798           0     -1805.717773   -842.020264  -22375.00000     48.280880
    4799           0     -1805.717773   -842.020264  -22625.00000     43.849758
    4800           0     -1805.717773   -842.020264  -22875.00000     39.309536
    4801           0     -1805.717773   -842.020264  -23125.00000     34.836300
    4802           0     -1805.717773   -842.020264  -23375.00000     30.804815
    4803           0     -1805.717773   -842.020264  -23625.00000     27.733585
    4804           0     -1805.717773   -842.020264  -23875.00000     26.279991
    4805           0     -1805.717773   -842.020264  -24125.00000     27.138170
    4806           0     -1805.717773   -842.020264  -24375.00000     30.064775
    4807           0     -1805.717773   -842.020264  -24625.00000     35.057854
    4808           0     -1805.717773   -842.020264  -24875.00000     40.903439
    4809           0     -1805.717773   -842.020264  -25125.00000     47.399082
    4810           0     -1805.717773   -842.020264  -25375.00000     54.971924
    4811           0     -1805.717773   -842.020264  -25625.00000     62.423279
    4812           0     -1805.717773   -842.020264  -25875.00000     63.133015
    4813           0     -1756.606201   -947.340210  -13625.00000    186.269089
    4814           0     -1756.606201   -947.340210  -13875.00000    169.287704
    4815           0     -1756.606201   -947.340210  -14125.00000    166.911560
    4816           0     -1756.606201   -947.340210  -14375.00000    153.741226
    4817           0     -1756.606201   -947.340210  -14625.00000    144.324234
    4818           0     -1756.606201   -947.340210  -14875.00000    133.965973
    4819           0     -1756.606201   -947.340210  -15125.00000    124.511658
    4820           0     -1756.606201   -947.340210  -15375.00000    114.603912
    4821           0     -1756.606201   -947.340210  -15625.00000    105.577377
    4822           0     -1756.606201   -947.340210  -15875.00000     96.464706
    4823           0     -1756.606201   -947.340088  -16125.00000     88.215485
    4824           0     -1756.606201   -947.340088  -16375.00000     80.260750
    4825           0     -1756.606201   -947.340088  -16625.00000     73.213493
    4826           0     -1756.606201   -947.340088  -16875.00000     66.759109
    4827           0     -1756.606201   -947.340088  -17125.00000     61.272163
    4828           0     -1756.606201   -947.340088  -17375.00000     56.574642
    4829           0     -1756.606201   -947.340088  -17625.00000     52.850136
    4830           0     -1756.606445   -947.340088  -17875.00000     49.956188
    4831           0     -1756.606445   -947.340088  -18125.00000     47.902821
    4832           0     -1756.606445   -947.340088  -18375.00000     46.521645
    4833           0     -1756.606445   -947.340088  -18625.00000     45.698471
    4834           0     -1756.606445   -947.340088  -18875.00000     45.253487
    4835           0     -1756.606445   -947.340088  -19125.00000     45.037247
    4836           0     -1756.606445   -947.340088  -19375.00000     44.902565
    4837           0     -1756.606445   -947.340088  -19625.00000     44.727367
    4838           0     -1756.606445   -947.340088  -19875.00000     44.412094
    4839           0     -1756.606445   -947.340088  -20125.00000     43.877972
    4840           0     -1756.606445   -947.340088  -20375.00000     43.063038
    4841           0     -1756.606445   -947.340088  -20625.00000     41.926731
    4842           0     -1756.606445   -947.340088  -20875.00000     40.430000
    4843           0     -1756.606445   -947.340088  -21125.00000     38.563927
    4844           0     -1756.606445   -947.340088  -21375.00000     36.301270
    4845           0     -1756.606445   -947.340088  -21625.00000     33.663631
    4846           0     -1756.606445   -947.340088  -21875.00000     30.630194
    4847           0     -1756.606445   -947.340088  -22125.00000     27.262264
    4848           0     -1756.606445   -947.340088  -22375.00000     23.554066
    4849           0     -1756.606445   -947.340088  -22625.00000     19.648985
    4850           0     -1756.606445   -947.340088  -22875.00000     15.645282
    4851           0     -1756.606445   -947.340088  -23125.00000     12.034032
    4852           0     -1756.606445   -947.340088  -23375.00000      9.721625
    4853           0     -1756.606445   -947.340088  -23625.00000     10.267626
    4854           0     -1756.606445   -947.340088  -23875.00000     13.627574
    4855           0     -1756.606445   -947.340088  -24125.00000     18.451029
    4856           0     -1756.606445   -947.340088  -24375.00000     23.990887
    4857           0     -1756.606445   -947.340088  -24625.00000     29.819637
    4858           0     -1756.606445   -947.340088  -24875.00000     35.778355
    4859           0     -1756.606445   -947.340088  -25125.00000     41.634865
    4860           0     -1756.606445   -947.340088  -25375.00000     48.543236
    4861           0     -1756.606445   -947.340088  -25625.00000     52.493923
    4862           0     -1756.606445   -947.340088  -25875.00000     58.272160
    4863           0     -1698.723511  -1047.595947  -13625.00000    166.782135
    4864           0     -1698.723511  -1047.595947  -13875.00000    161.759262
    4865           0     -1698.723511  -1047.595947  -14125.00000    157.062347
    4866           0     -1698.723511  -1047.595947  -14375.00000    145.966187
    4867           0     -1698.723511  -1047.595947  -14625.00000    138.105408
    4868           0     -1698.723511  -1047.595947  -14875.00000    128.962051
    4869           0     -1698.723511  -1047.595947  -15125.00000    120.685783
    4870           0     -1698.723511  -1047.595947  -15375.00000    111.962440
    4871           0     -1698.723511  -1047.595947  -15625.00000    103.741219
    4872           0     -1698.723511  -1047.595947  -15875.00000     95.502922
    4873           0     -1698.723511  -1047.595947  -16125.00000     87.683243
    4874           0     -1698.723511  -1047.595947  -16375.00000     80.144775
    4875           0     -1698.723511  -1047.595947  -16625.00000     73.059380
    4876           0     -1698.723511  -1047.595947  -16875.00000     66.444962
    4877           0     -1698.723511  -1047.595947  -17125.00000     60.356937
    4878           0     -1698.723511  -1047.595947  -17375.00000     54.863247
    4879           0     -1698.723511  -1047.595947  -17625.00000     49.970268
    4880           0     -1698.723511  -1047.595947  -17875.00000     45.742393
    4881           0     -1698.723511  -1047.595947  -18125.00000     42.153397
    4882           0     -1698.723511  -1047.595947  -18375.00000     39.225067
    4883           0     -1698.723511  -1047.595947  -18625.00000     36.887829
    4884           0     -1698.723511  -1047.595947  -18875.00000     35.097546
    4885           0     -1698.723511  -1047.595947  -19125.00000     33.740036
    4886           0     -1698.723511  -1047.595947  -19375.00000     32.721321
    4887           0     -1698.723511  -1047.595947  -19625.00000     31.913645
    4888           0     -1698.723511  -1047.595947  -19875.00000     31.217953
    4889           0     -1698.723511  -1047.595947  -20125.00000     30.527996
    4890           0     -1698.723511  -1047.595947  -20375.00000     29.771448
    4891           0     -1698.723511  -1047.595947  -20625.00000     28.875250
    4892           0     -1698.723511  -1047.595947  -20875.00000     27.801559
    4893           0     -1698.723511  -1047.595947  -21125.00000     26.505964
    4894           0     -1698.723511  -1047.595947  -21375.00000     24.983255
    4895           0     -1698.723511  -1047.595947  -21625.00000     23.212656
    4896           0     -1698.723511  -1047.595947  -21875.00000     21.224413
    4897           0     -1698.723511  -1047.595947  -22125.00000     19.030636
    4898           0     -1698.723511  -1047.595947  -22375.00000     16.725098
    4899           0     -1698.723511  -1047.595947  -22625.00000     14.416357
    4900           0     -1698.723511  -1047.595947  -22875.00000     12.391167
    4901           0     -1698.723511  -1047.595947  -23125.00000     11.072226
    4902           0     -1698.723511  -1047.595947  -23375.00000     11.067439
    4903           0     -1698.723511  -1047.595947  -23625.00000     12.584210
    4904           0     -1698.723511  -1047.595947  -23875.00000     15.417211
    4905           0     -1698.723511  -1047.595947  -24125.00000     18.976128
    4906           0     -1698.723511  -1047.595947  -24375.00000     23.147791
    4907           0     -1698.723511  -1047.595947  -24625.00000     27.367468
    4908           0     -1698.723511  -1047.595947  -24875.00000     32.010651
    4909           0     -1698.723511  -1047.595947  -25125.00000     36.241840
    4910           0     -1698.723511  -1047.595947  -25375.00000     41.757378
    4911           0     -1698.723511  -1047.595947  -25625.00000     43.739334
    4912           0     -1698.723511  -1047.595947  -25875.00000     50.508007
    4913           0     -1632.069580  -1142.787720  -13625.00000    146.120148
    4914           0     -1632.069580  -1142.787720  -13875.00000    152.353714
    4915           0     -1632.069580  -1142.787720  -14125.00000    142.870987
    4916           0     -1632.069580  -1142.787720  -14375.00000    135.688705
    4917           0     -1632.069580  -1142.787720  -14625.00000    128.347870
    4918           0     -1632.069580  -1142.787720  -14875.00000    121.570076
    4919           0     -1632.069580  -1142.787720  -15125.00000    114.135117
    4920           0     -1632.069580  -1142.787720  -15375.00000    107.376579
    4921           0     -1632.069580  -1142.787720  -15625.00000    100.262474
    4922           0     -1632.069580  -1142.787720  -15875.00000     93.614365
    4923           0     -1632.069580  -1142.787720  -16125.00000     86.922539
    4924           0     -1632.069580  -1142.787720  -16375.00000     80.618256
    4925           0     -1632.069580  -1142.787720  -16625.00000     74.476143
    4926           0     -1632.069580  -1142.787720  -16875.00000     68.714966
    4927           0     -1632.069580  -1142.787720  -17125.00000     63.252087
    4928           0     -1632.069580  -1142.787720  -17375.00000     58.192242
    4929           0     -1632.069580  -1142.787720  -17625.00000     53.519791
    4930           0     -1632.069580  -1142.787720  -17875.00000     49.277550
    4931           0     -1632.069580  -1142.787720  -18125.00000     45.473228
    4932           0     -1632.069580  -1142.787720  -18375.00000     42.111027
    4933           0     -1632.069580  -1142.787720  -18625.00000     39.193886
    4934           0     -1632.069580  -1142.787720  -18875.00000     36.694191
    4935           0     -1632.069580  -1142.787720  -19125.00000     34.592934
    4936           0     -1632.069580  -1142.787720  -19375.00000     32.833981
    4937           0     -1632.069580  -1142.787842  -19625.00000     31.374176
    4938           0     -1632.069580  -1142.787842  -19875.00000     30.139837
    4939           0     -1632.069580  -1142.787842  -20125.00000     29.077072
    4940           0     -1632.069580  -1142.787842  -20375.00000     28.112253
    4941           0     -1632.069580  -1142.787842  -20625.00000     27.199144
    4942           0     -1632.069580  -1142.787842  -20875.00000     26.278368
    4943           0     -1632.069580  -1142.787842  -21125.00000     25.324280
    4944           0     -1632.069580  -1142.787842  -21375.00000     24.298893
    4945           0     -1632.069580  -1142.787842  -21625.00000     23.205210
    4946           0     -1632.069580  -1142.787842  -21875.00000     22.032372
    4947           0     -1632.069580  -1142.787842  -22125.00000     20.823013
    4948           0     -1632.069580  -1142.787842  -22375.00000     19.606211
    4949           0     -1632.069580  -1142.787842  -22625.00000     18.485306
    4950           0     -1632.069580  -1142.787842  -22875.00000     17.548700
    4951           0     -1632.069580  -1142.787842  -23125.00000     16.972004
    4952           0     -1632.069580  -1142.787842  -23375.00000     16.871534
    4953           0     -1632.069580  -1142.787842  -23625.00000     17.397814
    4954           0     -1632.069580  -1142.787842  -23875.00000     18.538309
    4955           0     -1632.069580  -1142.787842  -24125.00000     20.276249
    4956           0     -1632.069580  -1142.787842  -24375.00000     22.457663
    4957           0     -1632.069580  -1142.787842  -24625.00000     24.988901
    4958           0     -1632.069580  -1142.787842  -24875.00000     27.769056
    4959           0     -1632.069580  -1142.787842  -25125.00000     30.596836
    4960           0     -1632.069580  -1142.787842  -25375.00000     33.770893
    4961           0     -1632.069580  -1142.787842  -25625.00000     37.264690
    4962           0     -1632.069580  -1142.787720  -25875.00000     36.515816
    4963           0     -1565.415527  -1237.979370  -13625.00000    139.527802
    4964           0     -1565.415527  -1237.979370  -13875.00000    131.237640
    4965           0     -1565.415527  -1237.979370  -14125.00000    131.065903
    4966           0     -1565.415527  -1237.979370  -14375.00000    123.965668
    4967           0     -1565.415527  -1237.979370  -14625.00000    118.755394
    4968           0     -1565.415527  -1237.979370  -14875.00000    113.316254
    4969           0     -1565.415527  -1237.979370  -15125.00000    107.996452
    4970           0     -1565.415527  -1237.979370  -15375.00000    102.561729
    4971           0     -1565.415527  -1237.979370  -15625.00000     97.409218
    4972           0     -1565.415527  -1237.979370  -15875.00000     92.177887
    4973           0     -1565.415527  -1237.979370  -16125.00000     87.243317
    4974           0     -1565.415527  -1237.979370  -16375.00000     82.359947
    4975           0     -1565.415527  -1237.979370  -16625.00000     77.794472
    4976           0     -1565.415527  -1237.979370  -16875.00000     73.406143
    4977           0     -1565.415527  -1237.979370  -17125.00000     69.367607
    4978           0     -1565.415527  -1237.979370  -17375.00000     65.602394
    4979           0     -1565.415527  -1237.979370  -17625.00000     62.208988
    4980           0     -1565.415527  -1237.979370  -17875.00000     59.142208
    4981           0     -1565.415527  -1237.979370  -18125.00000     56.443802
    4982           0     -1565.415527  -1237.979370  -18375.00000     54.076988
    4983           0     -1565.415527  -1237.979370  -18625.00000     52.040901
    4984           0     -1565.415527  -1237.979370  -18875.00000     50.294819
    4985           0     -1565.415527  -1237.979370  -19125.00000     48.808426
    4986           0     -1565.415527  -1237.979370  -19375.00000     47.534767
    4987           0     -1565.415527  -1237.979370  -19625.00000     46.427776
    4988           0     -1565.415527  -1237.979492  -19875.00000     45.438869
    4989           0     -1565.415527  -1237.979492  -20125.00000     44.518646
    4990           0     -1565.415527  -1237.979492  -20375.00000     43.623470
    4991           0     -1565.415527  -1237.979492  -20625.00000     42.709667
    4992           0     -1565.415527  -1237.979492  -20875.00000     41.743851
    4993           0     -1565.415527  -1237.979492  -21125.00000     40.693661
    4994           0     -1565.415527  -1237.979492  -21375.00000     39.540009
    4995           0     -1565.415527  -1237.979492  -21625.00000     38.265862
    4996           0     -1565.415527  -1237.979492  -21875.00000     36.870941
    4997           0     -1565.415527  -1237.979492  -22125.00000     35.358025
    4998           0     -1565.415527  -1237.979492  -22375.00000     33.751858
    4999           0     -1565.415527  -1237.979492  -22625.00000     32.080612
    5000           0     -1565.415527  -1237.979492  -22875.00000     30.400000
    5001           0     -1565.415527  -1237.979492  -23125.00000     28.767567
    5002           0     -1565.415527  -1237.979492  -23375.00000     27.264015
    5003           0     -1565.415527  -1237.979492  -23625.00000     25.972931
    5004           0     -1565.415527  -1237.979492  -23875.00000     24.953037
    5005           0     -1565.415527  -1237.979492  -24125.00000     24.315046
    5006           0     -1565.415527  -1237.979492  -24375.00000     23.973749
    5007           0     -1565.415527  -1237.979492  -24625.00000     24.159039
    5008           0     -1565.415527  -1237.979492  -24875.00000     24.474224
    5009           0     -1565.415527  -1237.979492  -25125.00000     25.329569
    5010           0     -1565.415527  -1237.979492  -25375.00000     26.446602
    5011           0     -1565.415527  -1237.979492  -25625.00000     27.778696
    5012           0     -1565.415527  -1237.979370  -25875.00000     26.239861
    5013           0     -1491.003052  -1326.660889  -13625.00000    122.435272
    5014           0     -1491.003052  -1326.660889  -13875.00000    121.500443
    5015           0     -1491.003052  -1326.660889  -14125.00000    120.212471
    5016           0     -1491.003052  -1326.660889  -14375.00000    114.881042
    5017           0     -1491.003052  -1326.660889  -14625.00000    111.100800
    5018           0     -1491.003052  -1326.660889  -14875.00000    106.813347
    5019           0     -1491.003052  -1326.660889  -15125.00000    102.797241
    5020           0     -1491.003052  -1326.660889  -15375.00000     98.621651
    5021           0     -1491.003052  -1326.660889  -15625.00000     94.636078
    5022           0     -1491.003052  -1326.660889  -15875.00000     90.647690
    5023           0     -1491.003052  -1326.660889  -16125.00000     86.808792
    5024           0     -1491.003052  -1326.660889  -16375.00000     83.095245
    5025           0     -1491.003052  -1326.660889  -16625.00000     79.560677
    5026           0     -1491.003052  -1326.660889  -16875.00000     76.244827
    5027           0     -1491.003052  -1326.660889  -17125.00000     73.158195
    5028           0     -1491.003052  -1326.660889  -17375.00000     70.345169
    5029           0     -1491.003052  -1326.660889  -17625.00000     67.792435
    5030           0     -1491.003052  -1326.660889  -17875.00000     65.524307
    5031           0     -1491.003052  -1326.660889  -18125.00000     63.511368
    5032           0     -1491.003052  -1326.660889  -18375.00000     61.752514
    5033           0     -1491.003052  -1326.660889  -18625.00000     60.207649
    5034           0     -1491.003052  -1326.660889  -18875.00000     58.854858
    5035           0     -1491.003052  -1326.660889  -19125.00000     57.649120
    5036           0     -1491.003052  -1326.660889  -19375.00000     56.556179
    5037           0     -1491.003052  -1326.660889  -19625.00000     55.531857
    5038           0     -1491.003052  -1326.660889  -19875.00000     54.537910
    5039           0     -1491.003052  -1326.660889  -20125.00000     53.535728
    5040           0     -1491.003052  -1326.660889  -20375.00000     52.489353
    5041           0     -1491.003052  -1326.660889  -20625.00000     51.369251
    5042           0     -1491.003052  -1326.660889  -20875.00000     50.145924
    5043           0     -1491.003052  -1326.660889  -21125.00000     48.801929
    5044           0     -1491.003052  -1326.660889  -21375.00000     47.317207
    5045           0     -1491.003052  -1326.660889  -21625.00000     45.690067
    5046           0     -1491.003052  -1326.660889  -21875.00000     43.912289
    5047           0     -1491.003052  -1326.660889  -22125.00000     42.003338
    5048           0     -1491.003052  -1326.660889  -22375.00000     39.967896
    5049           0     -1491.003052  -1326.660889  -22625.00000     37.853909
    5050           0     -1491.003052  -1326.660889  -22875.00000     35.675438
    5051           0     -1491.003052  -1326.660889  -23125.00000     33.516769
    5052           0     -1491.003052  -1326.660889  -23375.00000     31.385756
    5053           0     -1491.003052  -1326.660889  -23625.00000     29.409163
    5054           0     -1491.003052  -1326.660889  -23875.00000     27.550934
    5055           0     -1491.003052  -1326.660889  -24125.00000     25.988644
    5056           0     -1491.003052  -1326.660889  -24375.00000     24.576210
    5057           0     -1491.003052  -1326.660889  -24625.00000     23.592237
    5058           0     -1491.003052  -1326.660889  -24875.00000     22.662813
    5059           0     -1491.003052  -1326.660889  -25125.00000     22.250101
    5060           0     -1491.003052  -1326.661011  -25375.00000     22.136301
    5061           0     -1491.002930  -1326.661011  -25625.00000     21.100170
    5062           0     -1491.002930  -1326.661011  -25875.00000     22.544552
    5063           0     -1408.831787  -1408.832275  -13625.00000    109.468216
    5064           0     -1408.831787  -1408.832275  -13875.00000    116.795395
    5065           0     -1408.831787  -1408.832275  -14125.00000    111.451935
    5066           0     -1408.831787  -1408.832275  -14375.00000    108.326309
    5067           0     -1408.831787  -1408.832275  -14625.00000    105.055237
    5068           0     -1408.831787  -1408.832275  -14875.00000    101.901215
    5069           0     -1408.831787  -1408.832275  -15125.00000     98.472214
    5070           0     -1408.831787  -1408.832275  -15375.00000     95.299347
    5071           0     -1408.831787  -1408.832275  -15625.00000     91.959770
    5072           0     -1408.831787  -1408.832275  -15875.00000     88.798981
    5073           0     -1408.831787  -1408.832275  -16125.00000     85.609871
    5074           0     -1408.831787  -1408.832275  -16375.00000     82.573799
    5075           0     -1408.831787  -1408.832275  -16625.00000     79.610298
    5076           0     -1408.831787  -1408.832275  -16875.00000     76.811913
    5077           0     -1408.831787  -1408.832275  -17125.00000     74.156197
    5078           0     -1408.831787  -1408.832275  -17375.00000     71.683701
    5079           0     -1408.831787  -1408.832275  -17625.00000     69.389984
    5080           0     -1408.831787  -1408.832275  -17875.00000     67.282234
    5081           0     -1408.831787  -1408.832275  -18125.00000     65.353722
    5082           0     -1408.831787  -1408.832275  -18375.00000     63.589741
    5083           0     -1408.831787  -1408.832275  -18625.00000     61.974220
    5084           0     -1408.831787  -1408.832275  -18875.00000     60.479591
    5085           0     -1408.831787  -1408.832031  -19125.00000     59.081390
    5086           0     -1408.831787  -1408.832031  -19375.00000     57.746941
    5087           0     -1408.831787  -1408.832031  -19625.00000     56.447792
    5088           0     -1408.831787  -1408.832031  -19875.00000     55.152584
    5089           0     -1408.831787  -1408.832031  -20125.00000     53.833790
    5090           0     -1408.831787  -1408.832031  -20375.00000     52.466198
    5091           0     -1408.831787  -1408.832031  -20625.00000     51.027241
    5092           0     -1408.831787  -1408.832031  -20875.00000     49.501335
    5093           0     -1408.831787  -1408.832031  -21125.00000     47.873798
    5094           0     -1408.831787  -1408.832031  -21375.00000     46.141434
    5095           0     -1408.831787  -1408.832031  -21625.00000     44.299309
    5096           0     -1408.831787  -1408.832031  -21875.00000     42.359062
    5097           0     -1408.831787  -1408.832031  -22125.00000     40.325916
    5098           0     -1408.831787  -1408.832031  -22375.00000     38.228642
    5099           0     -1408.831787  -1408.832031  -22625.00000     36.080116
    5100           0     -1408.831787  -1408.832031  -22875.00000     33.928528
    5101           0     -1408.831787  -1408.832031  -23125.00000     31.785936
    5102           0     -1408.831787  -1408.832031  -23375.00000     29.724028
    5103           0     -1408.831787  -1408.832031  -23625.00000     27.734133
    5104           0     -1408.831787  -1408.832031  -23875.00000     25.924950
    5105           0     -1408.831787  -1408.832031  -24125.00000     24.223896
    5106           0     -1408.831787  -1408.832031  -24375.00000     22.821842
    5107           0     -1408.831787  -1408.832031  -24625.00000     21.492037
    5108           0     -1408.831787  -1408.832031  -24875.00000     20.589357
    5109           0     -1408.831787  -1408.832031  -25125.00000     19.707314
    5110           0     -1408.831787  -1408.832031  -25375.00000     19.109320
    5111           0     -1408.831787  -1408.832153  -25625.00000     19.004595
    5112           0     -1408.831787  -1408.832153  -25875.00000     17.623133
    5113           0     -1326.660645  -1491.003296  -13625.00000    105.710129
    5114           0     -1326.660645  -1491.003296  -13875.00000    102.299194
    5115           0     -1326.660645  -1491.003296  -14125.00000    103.536964
    5116           0     -1326.660645  -1491.003296  -14375.00000    100.273102
    5117           0     -1326.660645  -1491.003296  -14625.00000     98.060722
    5118           0     -1326.660645  -1491.003296  -14875.00000     95.923187
    5119           0     -1326.660645  -1491.003296  -15125.00000     93.668968
    5120           0     -1326.660645  -1491.003296  -15375.00000     91.459702
    5121           0     -1326.660645  -1491.003296  -15625.00000     89.317574
    5122           0     -1326.660645  -1491.003296  -15875.00000     87.185875
    5123           0     -1326.660645  -1491.003296  -16125.00000     85.158188
    5124           0     -1326.660645  -1491.003296  -16375.00000     83.176270
    5125           0     -1326.660645  -1491.003296  -16625.00000     81.309143
    5126           0     -1326.660645  -1491.003296  -16875.00000     79.520622
    5127           0     -1326.660645  -1491.003296  -17125.00000     77.851898
    5128           0     -1326.660645  -1491.003296  -17375.00000     76.280296
    5129           0     -1326.660645  -1491.003296  -17625.00000     74.821953
    5130           0     -1326.660645  -1491.003296  -17875.00000     73.457214
    5131           0     -1326.660645  -1491.003296  -18125.00000     72.181335
    5132           0     -1326.660645  -1491.003296  -18375.00000     70.971603
    5133           0     -1326.660645  -1491.003296  -18625.00000     69.808624
    5134           0     -1326.660645  -1491.003296  -18875.00000     68.666069
    5135           0     -1326.660645  -1491.003296  -19125.00000     67.517273
    5136           0     -1326.660645  -1491.003296  -19375.00000     66.335167
    5137           0     -1326.660645  -1491.003296  -19625.00000     65.092720
    5138           0     -1326.660645  -1491.003296  -19875.00000     63.766052
    5139           0     -1326.660645  -1491.003296  -20125.00000     62.333076
    5140           0     -1326.660645  -1491.003296  -20375.00000     60.776546
    5141           0     -1326.660645  -1491.003296  -20625.00000     59.082958
    5142           0     -1326.660645  -1491.003296  -20875.00000     57.244244
    5143           0     -1326.660645  -1491.003296  -21125.00000     55.257786
    5144           0     -1326.660645  -1491.003296  -21375.00000     53.126209
    5145           0     -1326.660645  -1491.003296  -21625.00000     50.858997
    5146           0     -1326.660645  -1491.003296  -21875.00000     48.469761
    5147           0     -1326.660645  -1491.003296  -22125.00000     45.979965
    5148           0     -1326.660645  -1491.003296  -22375.00000     43.412502
    5149           0     -1326.660645  -1491.003296  -22625.00000     40.799152
    5150           0     -1326.660645  -1491.003296  -22875.00000     38.167446
    5151           0     -1326.660645  -1491.003296  -23125.00000     35.556683
    5152           0     -1326.660645  -1491.003296  -23375.00000     32.991325
    5153           0     -1326.660645  -1491.003296  -23625.00000     30.516983
    5154           0     -1326.660645  -1491.003296  -23875.00000     28.146246
    5155           0     -1326.660645  -1491.003296  -24125.00000     25.935711
    5156           0     -1326.660645  -1491.003296  -24375.00000     23.880770
    5157           0     -1326.660645  -1491.003296  -24625.00000     22.049259
    5158           0     -1326.660645  -1491.003296  -24875.00000     20.452328
    5159           0     -1326.660645  -1491.003296  -25125.00000     19.065750
    5160           0     -1326.660645  -1491.003296  -25375.00000     18.026733
    5161           0     -1326.660645  -1491.003296  -25625.00000     17.530739
    5162           0     -1326.660645  -1491.003296  -25875.00000     15.410340
    5163           0     -1237.979126  -1565.416016  -13625.00000     97.217079
    5164           0     -1237.979126  -1565.416016  -13875.00000     98.798317
    5165           0     -1237.979126  -1565.416016  -14125.00000     98.972099
    5166           0     -1237.979126  -1565.416016  -14375.00000     96.544586
    5167           0     -1237.979126  -1565.416016  -14625.00000     94.958031
    5168           0     -1237.979126  -1565.416016  -14875.00000     93.325417
    5169           0     -1237.979126  -1565.416016  -15125.00000     91.666260
    5170           0     -1237.979126  -1565.416016  -15375.00000     90.031090
    5171           0     -1237.979126  -1565.416016  -15625.00000     88.431831
    5172           0     -1237.979126  -1565.416016  -15875.00000     86.863960
    5173           0     -1237.979126  -1565.416016  -16125.00000     85.336288
    5174           0     -1237.979126  -1565.416016  -16375.00000     83.860916
    5175           0     -1237.979126  -1565.416016  -16625.00000     82.425446
    5176           0     -1237.979126  -1565.416016  -16875.00000     81.048767
    5177           0     -1237.979126  -1565.416016  -17125.00000     79.711876
    5178           0     -1237.979126  -1565.416016  -17375.00000     78.430252
    5179           0     -1237.979126  -1565.416016  -17625.00000     77.182693
    5180           0     -1237.979126  -1565.416016  -17875.00000     75.975716
    5181           0     -1237.979126  -1565.416016  -18125.00000     74.785851
    5182           0     -1237.979126  -1565.416016  -18375.00000     73.608871
    5183           0     -1237.979126  -1565.416016  -18625.00000     72.419411
    5184           0     -1237.979126  -1565.416016  -18875.00000     71.204353
    5185           0     -1237.979126  -1565.416016  -19125.00000     69.938614
    5186           0     -1237.979126  -1565.416016  -19375.00000     68.604187
    5187           0     -1237.979126  -1565.416016  -19625.00000     67.179703
    5188           0     -1237.979126  -1565.416016  -19875.00000     65.646492
    5189           0     -1237.979126  -1565.416016  -20125.00000     63.990616
    5190           0     -1237.979126  -1565.416016  -20375.00000     62.196053
    5191           0     -1237.979126  -1565.416016  -20625.00000     60.259811
    5192           0     -1237.979126  -1565.416016  -20875.00000     58.170113
    5193           0     -1237.979126  -1565.416016  -21125.00000     55.938328
    5194           0     -1237.979126  -1565.416016  -21375.00000     53.556488
    5195           0     -1237.979126  -1565.416016  -21625.00000     51.053928
    5196           0     -1237.979126  -1565.416016  -21875.00000     48.423302
    5197           0     -1237.979126  -1565.416016  -22125.00000     45.716431
    5198           0     -1237.979126  -1565.416016  -22375.00000     42.919212
    5199           0     -1237.979126  -1565.416016  -22625.00000     40.112591
    5200           0     -1237.979126  -1565.416016  -22875.00000     37.262058
    5201           0     -1237.979126  -1565.416016  -23125.00000     34.489208
    5202           0     -1237.979126  -1565.416016  -23375.00000     31.716213
    5203           0     -1237.979126  -1565.416016  -23625.00000     29.128141
    5204           0     -1237.979126  -1565.416016  -23875.00000     26.568403
    5205           0     -1237.979126  -1565.416016  -24125.00000     24.332672
    5206           0     -1237.979126  -1565.416016  -24375.00000     22.128590
    5207           0     -1237.979126  -1565.416016  -24625.00000     20.456278
    5208           0     -1237.979126  -1565.416016  -24875.00000     18.792774
    5209           0     -1237.979126  -1565.416016  -25125.00000     17.885529
    5210           0     -1237.979126  -1565.416016  -25375.00000     17.127573
    5211           0     -1237.979126  -1565.416016  -25625.00000     17.249477
    5212           0     -1237.979126  -1565.416016  -25875.00000     16.677643
    5213           0     -1142.787354  -1632.069946  -13625.00000     94.215706
    5214           0     -1142.787354  -1632.069946  -13875.00000    102.005890
    5215           0     -1142.787354  -1632.069946  -14125.00000     98.537109
    5216           0     -1142.787354  -1632.069946  -14375.00000     97.047905
    5217           0     -1142.787354  -1632.069946  -14625.00000     95.609917
    5218           0     -1142.787354  -1632.069946  -14875.00000     94.103867
    5219           0     -1142.787354  -1632.069946  -15125.00000     92.540283
    5220           0     -1142.787354  -1632.069946  -15375.00000     91.081589
    5221           0     -1142.787354  -1632.069946  -15625.00000     89.551208
    5222           0     -1142.787354  -1632.069946  -15875.00000     88.093361
    5223           0     -1142.787354  -1632.069946  -16125.00000     86.607918
    5224           0     -1142.787354  -1632.069946  -16375.00000     85.162628
    5225           0     -1142.787354  -1632.069946  -16625.00000     83.710960
    5226           0     -1142.787354  -1632.069946  -16875.00000     82.277901
    5227           0     -1142.787354  -1632.069946  -17125.00000     80.843773
    5228           0     -1142.787354  -1632.069946  -17375.00000     79.412292
    5229           0     -1142.787354  -1632.069946  -17625.00000     77.975380
    5230           0     -1142.787354  -1632.069946  -17875.00000     76.526505
    5231           0     -1142.787354  -1632.069946  -18125.00000     75.060555
    5232           0     -1142.787354  -1632.069946  -18375.00000     73.566002
    5233           0     -1142.787354  -1632.069946  -18625.00000     72.036469
    5234           0     -1142.787354  -1632.069946  -18875.00000     70.458580
    5235           0     -1142.787354  -1632.069946  -19125.00000     68.823608
    5236           0     -1142.787354  -1632.069946  -19375.00000     67.118950
    5237           0     -1142.787354  -1632.069946  -19625.00000     65.334351
    5238           0     -1142.787354  -1632.069946  -19875.00000     63.460838
    5239           0     -1142.787354  -1632.069946  -20125.00000     61.488087
    5240           0     -1142.787354  -1632.069946  -20375.00000     59.413612
    5241           0     -1142.787354  -1632.069946  -20625.00000     57.228104
    5242           0     -1142.787354  -1632.069946  -20875.00000     54.938507
    5243           0     -1142.787354  -1632.069946  -21125.00000     52.536407
    5244           0     -1142.787354  -1632.069946  -21375.00000     50.041290
    5245           0     -1142.787354  -1632.069946  -21625.00000     47.443645
    5246           0     -1142.787354  -1632.069946  -21875.00000     44.779415
    5247           0     -1142.787354  -1632.069946  -22125.00000     42.033436
    5248           0     -1142.787354  -1632.069946  -22375.00000     39.263950
    5249           0     -1142.787354  -1632.069946  -22625.00000     36.442104
    5250           0     -1142.787354  -1632.069946  -22875.00000     33.658390
    5251           0     -1142.787354  -1632.069946  -23125.00000     30.857704
    5252           0     -1142.787354  -1632.069946  -23375.00000     28.180191
    5253           0     -1142.787354  -1632.069946  -23625.00000     25.527283
    5254           0     -1142.787354  -1632.069946  -23875.00000     23.117912
    5255           0     -1142.787354  -1632.069946  -24125.00000     20.791634
    5256           0     -1142.787354  -1632.069946  -24375.00000     18.884377
    5257           0     -1142.787354  -1632.069946  -24625.00000     17.171158
    5258           0     -1142.787354  -1632.069946  -24875.00000     16.077507
    5259           0     -1142.787354  -1632.069946  -25125.00000     15.423268
    5260           0     -1142.787354  -1632.069946  -25375.00000     15.312381
    5261           0     -1142.787354  -1632.069946  -25625.00000     16.182114
    5262           0     -1142.787354  -1632.069946  -25875.00000     16.372040
    5263           0     -1047.595581  -1698.723877  -13625.00000     98.081604
    5264           0     -1047.595581  -1698.723877  -13875.00000     96.132507
    5265           0     -1047.595581  -1698.723877  -14125.00000     97.944328
    5266           0     -1047.595581  -1698.723877  -14375.00000     95.648514
    5267           0     -1047.595581  -1698.723877  -14625.00000     94.433258
    5268           0     -1047.595581  -1698.723877  -14875.00000     93.198372
    5269           0     -1047.595581  -1698.723877  -15125.00000     91.944496
    5270           0     -1047.595581  -1698.723877  -15375.00000     90.701286
    5271           0     -1047.595581  -1698.723877  -15625.00000     89.512833
    5272           0     -1047.595581  -1698.723877  -15875.00000     88.315430
    5273           0     -1047.595581  -1698.723877  -16125.00000     87.156845
    5274           0     -1047.595581  -1698.723877  -16375.00000     85.999290
    5275           0     -1047.595581  -1698.723877  -16625.00000     84.857834
    5276           0     -1047.595581  -1698.723877  -16875.00000     83.713173
    5277           0     -1047.595581  -1698.723877  -17125.00000     82.561287
    5278           0     -1047.595581  -1698.723877  -17375.00000     81.390472
    5279           0     -1047.595581  -1698.723877  -17625.00000     80.187622
    5280           0     -1047.595581  -1698.723877  -17875.00000     78.944038
    5281           0     -1047.595581  -1698.723877  -18125.00000     77.643639
    5282           0     -1047.595581  -1698.723877  -18375.00000     76.278870
    5283           0     -1047.595581  -1698.723877  -18625.00000     74.834229
    5284           0     -1047.595581  -1698.723877  -18875.00000     73.302666
    5285           0     -1047.595581  -1698.723877  -19125.00000     71.671165
    5286           0     -1047.595581  -1698.723877  -19375.00000     69.933418
    5287           0     -1047.595581  -1698.723877  -19625.00000     68.080467
    5288           0     -1047.595581  -1698.723877  -19875.00000     66.107269
    5289           0     -1047.595581  -1698.723877  -20125.00000     64.010460
    5290           0     -1047.595581  -1698.723877  -20375.00000     61.787014
    5291           0     -1047.595581  -1698.723877  -20625.00000     59.440617
    5292           0     -1047.595581  -1698.723877  -20875.00000     56.970516
    5293           0     -1047.595581  -1698.723877  -21125.00000     54.388954
    5294           0     -1047.595581  -1698.723877  -21375.00000     51.696785
    5295           0     -1047.595581  -1698.723877  -21625.00000     48.916203
    5296           0     -1047.595581  -1698.723877  -21875.00000     46.047615
    5297           0     -1047.595581  -1698.723877  -22125.00000     43.124889
    5298           0     -1047.595581  -1698.723877  -22375.00000     40.144402
    5299           0     -1047.595581  -1698.723877  -22625.00000     37.154423
    5300           0     -1047.595581  -1698.723877  -22875.00000     34.142986
    5301           0     -1047.595581  -1698.723877  -23125.00000     31.177931
    5302           0     -1047.595581  -1698.723877  -23375.00000     28.237196
    5303           0     -1047.595581  -1698.723877  -23625.00000     25.416613
    5304           0     -1047.595581  -1698.723877  -23875.00000     22.696239
    5305           0     -1047.595581  -1698.723877  -24125.00000     20.204300
    5306           0     -1047.595581  -1698.723877  -24375.00000     17.983929
    5307           0     -1047.595581  -1698.723877  -24625.00000     16.143734
    5308           0     -1047.595581  -1698.723877  -24875.00000     14.964739
    5309           0     -1047.595581  -1698.723877  -25125.00000     14.253703
    5310           0     -1047.595581  -1698.723877  -25375.00000     14.745848
    5311           0     -1047.595581  -1698.723877  -25625.00000     15.133863
    5312           0     -1047.595581  -1698.723877  -25875.00000     17.115305
    5313           0      -947.339722  -1756.606689  -13625.00000     97.345413
    5314           0      -947.339722  -1756.606689  -13875.00000     99.202591
    5315           0      -947.339722  -1756.606689  -14125.00000     99.759766
    5316           0      -947.339722  -1756.606689  -14375.00000     97.537445
    5317           0      -947.339722  -1756.606689  -14625.00000     96.269501
    5318           0      -947.339722  -1756.606689  -14875.00000     94.991066
    5319           0      -947.339722  -1756.606689  -15125.00000     93.666145
    5320           0      -947.339722  -1756.606689  -15375.00000     92.394997
    5321           0      -947.339722  -1756.606689  -15625.00000     91.154739
    5322           0      -947.339722  -1756.606689  -15875.00000     89.922287
    5323           0      -947.339722  -1756.606689  -16125.00000     88.723572
    5324           0      -947.339722  -1756.606689  -16375.00000     87.525879
    5325           0      -947.339722  -1756.606689  -16625.00000     86.345741
    5326           0      -947.339722  -1756.606689  -16875.00000     85.155037
    5327           0      -947.339722  -1756.606689  -17125.00000     83.958374
    5328           0      -947.339722  -1756.606689  -17375.00000     82.731102
    5329           0      -947.339722  -1756.606689  -17625.00000     81.469627
    5330           0      -947.339722  -1756.606689  -17875.00000     80.152657
    5331           0      -947.339722  -1756.606689  -18125.00000     78.772858
    5332           0      -947.339722  -1756.606689  -18375.00000     77.312645
    5333           0      -947.339722  -1756.606689  -18625.00000     75.764404
    5334           0      -947.339722  -1756.606689  -18875.00000     74.114380
    5335           0      -947.339722  -1756.606689  -19125.00000     72.356880
    5336           0      -947.339722  -1756.606689  -19375.00000     70.481796
    5337           0      -947.339722  -1756.606689  -19625.00000     68.486931
    5338           0      -947.339722  -1756.606689  -19875.00000     66.365448
    5339           0      -947.339722  -1756.606689  -20125.00000     64.120041
    5340           0      -947.339722  -1756.606689  -20375.00000     61.746552
    5341           0      -947.339722  -1756.606689  -20625.00000     59.254227
    5342           0      -947.339722  -1756.606689  -20875.00000     56.640430
    5343           0      -947.339722  -1756.606689  -21125.00000     53.923096
    5344           0      -947.339722  -1756.606689  -21375.00000     51.098537
    5345           0      -947.339722  -1756.606689  -21625.00000     48.196621
    5346           0      -947.339722  -1756.606689  -21875.00000     45.207462
    5347           0      -947.339722  -1756.606689  -22125.00000     42.178177
    5348           0      -947.339722  -1756.606689  -22375.00000     39.083393
    5349           0      -947.339722  -1756.606689  -22625.00000     35.997520
    5350           0      -947.339722  -1756.606689  -22875.00000     32.863934
    5351           0      -947.339722  -1756.606689  -23125.00000     29.804970
    5352           0      -947.339722  -1756.606689  -23375.00000     26.707699
    5353           0      -947.339722  -1756.606689  -23625.00000     23.785410
    5354           0      -947.339722  -1756.606689  -23875.00000     20.831581
    5355           0      -947.339722  -1756.606689  -24125.00000     18.237288
    5356           0      -947.339722  -1756.606689  -24375.00000     15.657890
    5357           0      -947.339722  -1756.606689  -24625.00000     13.808619
    5358           0      -947.339722  -1756.606689  -24875.00000     12.197195
    5359           0      -947.339722  -1756.606689  -25125.00000     11.832670
    5360           0      -947.339722  -1756.606689  -25375.00000     12.091017
    5361           0      -947.339722  -1756.606689  -25625.00000     13.618104
    5362           0      -947.339722  -1756.606689  -25875.00000     15.047969
    5363           0      -842.019836  -1805.718140  -13625.00000     99.857643
    5364           0      -842.019836  -1805.718140  -13875.00000    108.051064
    5365           0      -842.019836  -1805.718140  -14125.00000    104.452095
    5366           0      -842.019836  -1805.718140  -14375.00000    102.652374
    5367           0      -842.019836  -1805.718140  -14625.00000    101.100502
    5368           0      -842.019836  -1805.718140  -14875.00000     99.479530
    5369           0      -842.019836  -1805.718140  -15125.00000     97.796478
    5370           0      -842.019836  -1805.718140  -15375.00000     96.277939
    5371           0      -842.019836  -1805.718140  -15625.00000     94.669830
    5372           0      -842.019836  -1805.718140  -15875.00000     93.173248
    5373           0      -842.019836  -1805.718140  -16125.00000     91.632095
    5374           0      -842.019836  -1805.718140  -16375.00000     90.152069
    5375           0      -842.019836  -1805.718140  -16625.00000     88.646584
    5376           0      -842.019836  -1805.718140  -16875.00000     87.165543
    5377           0      -842.019836  -1805.718140  -17125.00000     85.658493
    5378           0      -842.019836  -1805.718140  -17375.00000     84.144516
    5379           0      -842.019836  -1805.718140  -17625.00000     82.591728
    5380           0      -842.019836  -1805.718140  -17875.00000     81.003349
    5381           0      -842.019836  -1805.718140  -18125.00000     79.357719
    5382           0      -842.019836  -1805.718140  -18375.00000     77.651405
    5383           0      -842.019836  -1805.718140  -18625.00000     75.869164
    5384           0      -842.019836  -1805.718140  -18875.00000     74.006432
    5385           0      -842.019836  -1805.718140  -19125.00000     72.052597
    5386           0      -842.019836  -1805.718140  -19375.00000     70.005188
    5387           0      -842.019836  -1805.718140  -19625.00000     67.857086
    5388           0      -842.019836  -1805.718140  -19875.00000     65.609833
    5389           0      -842.019836  -1805.718140  -20125.00000     63.258717
    5390           0      -842.019836  -1805.718140  -20375.00000     60.810822
    5391           0      -842.019836  -1805.718140  -20625.00000     58.262329
    5392           0      -842.019836  -1805.718140  -20875.00000     55.627525
    5393           0      -842.019836  -1805.718140  -21125.00000     52.901058
    5394           0      -842.019836  -1805.718140  -21375.00000     50.106831
    5395           0      -842.019775  -1805.718140  -21625.00000     47.233898
    5396           0      -842.019775  -1805.718140  -21875.00000     44.319809
    5397           0      -842.019775  -1805.718140  -22125.00000     41.341141
    5398           0      -842.019775  -1805.718140  -22375.00000     38.356255
    5399           0      -842.019775  -1805.718140  -22625.00000     35.317947
    5400           0      -842.019775  -1805.718140  -22875.00000     32.318733
    5401           0      -842.019775  -1805.718140  -23125.00000     29.269880
    5402           0      -842.019775  -1805.718140  -23375.00000     26.322676
    5403           0      -842.019775  -1805.718140  -23625.00000     23.321169
    5404           0      -842.019775  -1805.718140  -23875.00000     20.519466
    5405           0      -842.019775  -1805.718140  -24125.00000     17.665169
    5406           0      -842.019775  -1805.718140  -24375.00000     15.187065
    5407           0      -842.019775  -1805.718140  -24625.00000     12.747383
    5408           0      -842.019775  -1805.718140  -24875.00000     11.005804
    5409           0      -842.019775  -1805.718140  -25125.00000      9.780651
    5410           0      -842.019775  -1805.718140  -25375.00000      9.505382
    5411           0      -842.019775  -1805.718140  -25625.00000     10.712415
    5412           0      -842.019836  -1805.718140  -25875.00000     11.267435
    5413           0      -736.699951  -1854.829468  -13625.00000    109.551735
    5414           0      -736.699951  -1854.829468  -13875.00000    107.108566
    5415           0      -736.699951  -1854.829468  -14125.00000    108.677299
    5416           0      -736.699951  -1854.829468  -14375.00000    105.354828
    5417           0      -736.699951  -1854.829468  -14625.00000    103.627396
    5418           0      -736.699951  -1854.829468  -14875.00000    101.595520
    5419           0      -736.699951  -1854.829468  -15125.00000     99.755066
    5420           0      -736.699951  -1854.829468  -15375.00000     97.806381
    5421           0      -736.699951  -1854.829468  -15625.00000     96.009697
    5422           0      -736.699951  -1854.829468  -15875.00000     94.156036
    5423           0      -736.699951  -1854.829468  -16125.00000     92.388260
    5424           0      -736.699951  -1854.829468  -16375.00000     90.603699
    5425           0      -736.699951  -1854.829468  -16625.00000     88.862671
    5426           0      -736.699951  -1854.829468  -16875.00000     87.117020
    5427           0      -736.699951  -1854.829468  -17125.00000     85.386932
    5428           0      -736.699951  -1854.829468  -17375.00000     83.647659
    5429           0      -736.699951  -1854.829468  -17625.00000     81.900009
    5430           0      -736.699951  -1854.829468  -17875.00000     80.128441
    5431           0      -736.699951  -1854.829468  -18125.00000     78.325005
    5432           0      -736.699951  -1854.829468  -18375.00000     76.477821
    5433           0      -736.699951  -1854.829468  -18625.00000     74.576508
    5434           0      -736.699951  -1854.829468  -18875.00000     72.611427
    5435           0      -736.699951  -1854.829468  -19125.00000     70.573853
    5436           0      -736.699951  -1854.829468  -19375.00000     68.456604
    5437           0      -736.699951  -1854.829468  -19625.00000     66.255165
    5438           0      -736.699951  -1854.829468  -19875.00000     63.965092
    5439           0      -736.699951  -1854.829468  -20125.00000     61.587627
    5440           0      -736.699951  -1854.829468  -20375.00000     59.120663
    5441           0      -736.699951  -1854.829468  -20625.00000     56.572079
    5442           0      -736.699951  -1854.829468  -20875.00000     53.940689
    5443           0      -736.699951  -1854.829468  -21125.00000     51.241592
    5444           0      -736.699951  -1854.829468  -21375.00000     48.471825
    5445           0      -736.699951  -1854.829468  -21625.00000     45.654545
    5446           0      -736.699951  -1854.829468  -21875.00000     42.780895
    5447           0      -736.699951  -1854.829468  -22125.00000     39.883961
    5448           0      -736.699951  -1854.829468  -22375.00000     36.943176
    5449           0      -736.699951  -1854.829468  -22625.00000     34.005817
    5450           0      -736.699951  -1854.829468  -22875.00000     31.032211
    5451           0      -736.699890  -1854.829468  -23125.00000     28.091904
    5452           0      -736.699890  -1854.829468  -23375.00000     25.117643
    5453           0      -736.699890  -1854.829468  -23625.00000     22.214136
    5454           0      -736.699890  -1854.829468  -23875.00000     19.281088
    5455           0      -736.699890  -1854.829468  -24125.00000     16.472898
    5456           0      -736.699890  -1854.829468  -24375.00000     13.677611
    5457           0      -736.699890  -1854.829468  -24625.00000     11.101024
    5458           0      -736.699890  -1854.829468  -24875.00000      8.777023
    5459           0      -736.699890  -1854.829468  -25125.00000      6.970846
    5460           0      -736.699890  -1854.829468  -25375.00000      6.400024
    5461           0      -736.699890  -1854.829468  -25625.00000      6.579982
    5462           0      -736.699951  -1854.829468  -25875.00000      8.598654
    5463           0      -627.916016  -1894.423584  -13625.00000    112.520164
    5464           0      -627.916016  -1894.423584  -13875.00000    112.675140
    5465           0      -627.916016  -1894.423584  -14125.00000    113.076065
    5466           0      -627.916016  -1894.423584  -14375.00000    109.417801
    5467           0      -627.916016  -1894.423584  -14625.00000    107.294785
    5468           0      -627.916016  -1894.423584  -14875.00000    104.938438
    5469           0      -627.916016  -1894.423584  -15125.00000    102.686043
    5470           0      -627.916016  -1894.423584  -15375.00000    100.398056
    5471           0      -627.916016  -1894.423584  -15625.00000     98.234634
    5472           0      -627.916016  -1894.423584  -15875.00000     96.029678
    5473           0      -627.916016  -1894.423584  -16125.00000     93.924103
    5474           0      -627.916016  -1894.423584  -16375.00000     91.798149
    5475           0      -627.916016  -1894.423584  -16625.00000     89.742592
    5476           0      -627.916016  -1894.423584  -16875.00000     87.678841
    5477           0      -627.916016  -1894.423584  -17125.00000     85.661690
    5478           0      -627.916016  -1894.423584  -17375.00000     83.638428
    5479           0      -627.916016  -1894.423584  -17625.00000     81.639359
    5480           0      -627.916016  -1894.423584  -17875.00000     79.627220
    5481           0      -627.916016  -1894.423584  -18125.00000     77.616089
    5482           0      -627.916016  -1894.423584  -18375.00000     75.578201
    5483           0      -627.916016  -1894.423584  -18625.00000     73.518059
    5484           0      -627.916016  -1894.423584  -18875.00000     71.414818
    5485           0      -627.916016  -1894.423584  -19125.00000     69.268646
    5486           0      -627.916016  -1894.423584  -19375.00000     67.064888
    5487           0      -627.916016  -1894.423584  -19625.00000     64.803413
    5488           0      -627.916016  -1894.423584  -19875.00000     62.475384
    5489           0      -627.916016  -1894.423584  -20125.00000     60.083061
    5490           0      -627.916016  -1894.423584  -20375.00000     57.622696
    5491           0      -627.916016  -1894.423584  -20625.00000     55.100445
    5492           0      -627.916016  -1894.423584  -20875.00000     52.515957
    5493           0      -627.916016  -1894.423584  -21125.00000     49.880119
    5494           0      -627.916016  -1894.423584  -21375.00000     47.192944
    5495           0      -627.916016  -1894.423584  -21625.00000     44.470989
    5496           0      -627.916016  -1894.423584  -21875.00000     41.709721
    5497           0      -627.916016  -1894.423584  -22125.00000     38.934032
    5498           0      -627.916016  -1894.423584  -22375.00000     36.127228
    5499           0      -627.916016  -1894.423584  -22625.00000     33.329460
    5500           0      -627.916016  -1894.423584  -22875.00000     30.499540
    5501           0      -627.916016  -1894.423584  -23125.00000     27.708639
    5502           0      -627.916016  -1894.423584  -23375.00000     24.869219
    5503           0      -627.916016  -1894.423584  -23625.00000     22.115765
    5504           0      -627.916016  -1894.423584  -23875.00000     19.272467
    5505           0      -627.916016  -1894.423584  -24125.00000     16.601803
    5506           0      -627.916016  -1894.423584  -24375.00000     13.756394
    5507           0      -627.916016  -1894.423584  -24625.00000     11.258257
    5508           0      -627.916016  -1894.423584  -24875.00000      8.444178
    5509           0      -627.916016  -1894.423584  -25125.00000      6.369733
    5510           0      -627.916016  -1894.423584  -25375.00000      4.031418
    5511           0      -627.916016  -1894.423584  -25625.00000      3.783707
    5512           0      -627.916016  -1894.423584  -25875.00000      5.264614
    5513           0      -515.667969  -1924.500366  -13625.00000    114.218796
    5514           0      -515.667969  -1924.500366  -13875.00000    122.619453
    5515           0      -515.667969  -1924.500366  -14125.00000    117.870331
    5516           0      -515.667969  -1924.500366  -14375.00000    114.794411
    5517           0      -515.667969  -1924.500366  -14625.00000    112.127029
    5518           0      -515.667969  -1924.500366  -14875.00000    109.470886
    5519           0      -515.667969  -1924.500366  -15125.00000    106.642006
    5520           0      -515.667969  -1924.500366  -15375.00000    104.114914
    5521           0      -515.667969  -1924.500366  -15625.00000    101.426620
    5522           0      -515.667969  -1924.500366  -15875.00000     98.941032
    5523           0      -515.667969  -1924.500366  -16125.00000     96.383476
    5524           0      -515.667969  -1924.500366  -16375.00000     93.955658
    5525           0      -515.667969  -1924.500366  -16625.00000     91.504112
    5526           0      -515.667969  -1924.500366  -16875.00000     89.139687
    5527           0      -515.667969  -1924.500366  -17125.00000     86.774773
    5528           0      -515.667969  -1924.500366  -17375.00000     84.469200
    5529           0      -515.667969  -1924.500366  -17625.00000     82.170883
    5530           0      -515.667969  -1924.500366  -17875.00000     79.910362
    5531           0      -515.667969  -1924.500366  -18125.00000     77.654556
    5532           0      -515.667969  -1924.500366  -18375.00000     75.417267
    5533           0      -515.667969  -1924.500366  -18625.00000     73.175873
    5534           0      -515.667969  -1924.500366  -18875.00000     70.935295
    5535           0      -515.667969  -1924.500366  -19125.00000     68.679390
    5536           0      -515.667969  -1924.500366  -19375.00000     66.409447
    5537           0      -515.667969  -1924.500366  -19625.00000     64.114044
    5538           0      -515.667969  -1924.500366  -19875.00000     61.794476
    5539           0      -515.667969  -1924.500366  -20125.00000     59.443001
    5540           0      -515.667969  -1924.500366  -20375.00000     57.063343
    5541           0      -515.667969  -1924.500366  -20625.00000     54.650082
    5542           0      -515.667969  -1924.500366  -20875.00000     52.211128
    5543           0      -515.667969  -1924.500366  -21125.00000     49.741135
    5544           0      -515.667969  -1924.500366  -21375.00000     47.253830
    5545           0      -515.667969  -1924.500366  -21625.00000     44.740261
    5546           0      -515.667969  -1924.500366  -21875.00000     42.222664
    5547           0      -515.667969  -1924.500366  -22125.00000     39.682652
    5548           0      -515.667969  -1924.500366  -22375.00000     37.156311
    5549           0      -515.667969  -1924.500366  -22625.00000     34.606636
    5550           0      -515.667969  -1924.500366  -22875.00000     32.094254
    5551           0      -515.667969  -1924.500366  -23125.00000     29.548454
    5552           0      -515.667969  -1924.500366  -23375.00000     27.074499
    5553           0      -515.667969  -1924.500366  -23625.00000     24.542263
    5554           0      -515.667969  -1924.500366  -23875.00000     22.136896
    5555           0      -515.667969  -1924.500366  -24125.00000     19.625416
    5556           0      -515.667969  -1924.500366  -24375.00000     17.333830
    5557           0      -515.667969  -1924.500366  -24625.00000     14.850901
    5558           0      -515.667969  -1924.500366  -24875.00000     12.760489
    5559           0      -515.667969  -1924.500366  -25125.00000     10.305902
    5560           0      -515.667969  -1924.500366  -25375.00000      8.617195
    5561           0      -515.667969  -1924.500366  -25625.00000      6.756536
    5562           0      -515.667969  -1924.500366  -25875.00000      3.201153
    5563           0      -403.420013  -1954.577148  -13625.00000    124.745377
    5564           0      -403.420013  -1954.577148  -13875.00000    121.535973
    5565           0      -403.420013  -1954.577148  -14125.00000    122.305824
    5566           0      -403.420013  -1954.577148  -14375.00000    117.368019
    5567           0      -403.420013  -1954.577148  -14625.00000    114.536018
    5568           0      -403.420013  -1954.577148  -14875.00000    111.162949
    5569           0      -403.420013  -1954.577148  -15125.00000    108.140907
    5570           0      -403.420013  -1954.577148  -15375.00000    104.921516
    5571           0      -403.420013  -1954.577148  -15625.00000    101.946068
    5572           0      -403.420013  -1954.577148  -15875.00000     98.873283
    5573           0      -403.420013  -1954.577148  -16125.00000     95.951935
    5574           0      -403.420013  -1954.577148  -16375.00000     93.004578
    5575           0      -403.420013  -1954.577148  -16625.00000     90.157066
    5576           0      -403.420013  -1954.577148  -16875.00000     87.319618
    5577           0      -403.420013  -1954.577148  -17125.00000     84.555870
    5578           0      -403.420013  -1954.577148  -17375.00000     81.819588
    5579           0      -403.420013  -1954.577148  -17625.00000     79.142647
    5580           0      -403.420013  -1954.577148  -17875.00000     76.500145
    5581           0      -403.420013  -1954.577148  -18125.00000     73.907181
    5582           0      -403.420013  -1954.577148  -18375.00000     71.348915
    5583           0      -403.420013  -1954.577148  -18625.00000     68.831253
    5584           0      -403.420013  -1954.577148  -18875.00000     66.343903
    5585           0      -403.420013  -1954.577148  -19125.00000     63.888050
    5586           0      -403.420013  -1954.577148  -19375.00000     61.455509
    5587           0      -403.420013  -1954.577148  -19625.00000     59.045681
    5588           0      -403.420013  -1954.577148  -19875.00000     56.651592
    5589           0      -403.420013  -1954.577148  -20125.00000     54.273094
    5590           0      -403.420013  -1954.577148  -20375.00000     51.903912
    5591           0      -403.420013  -1954.577148  -20625.00000     49.546005
    5592           0      -403.420013  -1954.577148  -20875.00000     47.192993
    5593           0      -403.420013  -1954.577148  -21125.00000     44.850342
    5594           0      -403.420013  -1954.577148  -21375.00000     42.509953
    5595           0      -403.420013  -1954.577148  -21625.00000     40.182491
    5596           0      -403.420013  -1954.577148  -21875.00000     37.855453
    5597           0      -403.420013  -1954.577148  -22125.00000     35.547398
    5598           0      -403.420013  -1954.577148  -22375.00000     33.237328
    5599           0      -403.420013  -1954.577148  -22625.00000     30.956537
    5600           0      -403.420013  -1954.577148  -22875.00000     28.669117
    5601           0      -403.420013  -1954.577148  -23125.00000     26.427475
    5602           0      -403.420013  -1954.577148  -23375.00000     24.170492
    5603           0      -403.420013  -1954.577148  -23625.00000     21.985157
    5604           0      -403.419983  -1954.577148  -23875.00000     19.768551
    5605           0      -403.419983  -1954.577148  -24125.00000     17.663528
    5606           0      -403.419983  -1954.577148  -24375.00000     15.499496
    5607           0      -403.419983  -1954.577148  -24625.00000     13.507695
    5608           0      -403.419983  -1954.577148  -24875.00000     11.407643
    5609           0      -403.419983  -1954.577148  -25125.00000      9.573873
    5610           0      -403.419983  -1954.577148  -25375.00000      7.633162
    5611           0      -403.419983  -1954.577148  -25625.00000      5.651721
    5612           0      -403.420013  -1954.577148  -25875.00000      4.366928
    5613           0      -289.413330  -1974.679565  -13625.00000    127.185196
    5614           0      -289.413330  -1974.679565  -13875.00000    124.834991
    5615           0      -289.413330  -1974.679565  -14125.00000    125.044167
    5616           0      -289.413330  -1974.679565  -14375.00000    119.783104
    5617           0      -289.413330  -1974.679565  -14625.00000    116.620949
    5618           0      -289.413330  -1974.679565  -14875.00000    112.973984
    5619           0      -289.413330  -1974.679565  -15125.00000    109.617233
    5620           0      -289.413330  -1974.679565  -15375.00000    106.107971
    5621           0      -289.413330  -1974.679565  -15625.00000    102.829269
    5622           0      -289.413330  -1974.679565  -15875.00000     99.459541
    5623           0      -289.413330  -1974.679565  -16125.00000     96.253815
    5624           0      -289.413330  -1974.679565  -16375.00000     93.017570
    5625           0      -289.413330  -1974.679565  -16625.00000     89.901329
    5626           0      -289.413330  -1974.679565  -16875.00000     86.791794
    5627           0      -289.413330  -1974.679565  -17125.00000     83.778175
    5628           0      -289.413330  -1974.679565  -17375.00000     80.794121
    5629           0      -289.413330  -1974.679565  -17625.00000     77.892906
    5630           0      -289.413330  -1974.679565  -17875.00000     75.035286
    5631           0      -289.413330  -1974.679565  -18125.00000     72.252792
    5632           0      -289.413330  -1974.679565  -18375.00000     69.521454
    5633           0      -289.413330  -1974.679565  -18625.00000     66.859070
    5634           0      -289.413330  -1974.679565  -18875.00000     64.249992
    5635           0      -289.413330  -1974.679565  -19125.00000     61.703083
    5636           0      -289.413330  -1974.679565  -19375.00000     59.207157
    5637           0      -289.413330  -1974.679565  -19625.00000     56.765373
    5638           0      -289.413330  -1974.679565  -19875.00000     54.369118
    5639           0      -289.413330  -1974.679565  -20125.00000     52.018269
    5640           0      -289.413330  -1974.679565  -20375.00000     49.705898
    5641           0      -289.413330  -1974.679565  -20625.00000     47.430527
    5642           0      -289.413330  -1974.679565  -20875.00000     45.186352
    5643           0      -289.413330  -1974.679565  -21125.00000     42.972233
    5644           0      -289.413330  -1974.679565  -21375.00000     40.782726
    5645           0      -289.413330  -1974.679565  -21625.00000     38.618851
    5646           0      -289.413330  -1974.679565  -21875.00000     36.474022
    5647           0      -289.413330  -1974.679565  -22125.00000     34.354237
    5648           0      -289.413361  -1974.679565  -22375.00000     32.248814
    5649           0      -289.413361  -1974.679565  -22625.00000     30.173649
    5650           0      -289.413361  -1974.679565  -22875.00000     28.108049
    5651           0      -289.413361  -1974.679565  -23125.00000     26.086971
    5652           0      -289.413361  -1974.679565  -23375.00000     24.067705
    5653           0      -289.413361  -1974.679565  -23625.00000     22.121439
    5654           0      -289.413361  -1974.679565  -23875.00000     20.159956
    5655           0      -289.413361  -1974.679565  -24125.00000     18.323385
    5656           0      -289.413361  -1974.679565  -24375.00000     16.431503
    5657           0      -289.413361  -1974.679565  -24625.00000     14.757264
    5658           0      -289.413361  -1974.679565  -24875.00000     12.953240
    5659           0      -289.413361  -1974.679565  -25125.00000     11.450747
    5660           0      -289.413361  -1974.679565  -25375.00000      9.961353
    5661           0      -289.413361  -1974.679565  -25625.00000      8.277230
    5662           0      -289.413330  -1974.679565  -25875.00000      6.659722
    5663           0      -173.647873  -1984.807617  -13625.00000    123.493095
    5664           0      -173.647873  -1984.807617  -13875.00000    131.793671
    5665           0      -173.647873  -1984.807617  -14125.00000    126.118446
    5666           0      -173.647873  -1984.807617  -14375.00000    122.011337
    5667           0      -173.647873  -1984.807617  -14625.00000    118.408394
    5668           0      -173.647873  -1984.807617  -14875.00000    114.877022
    5669           0      -173.647873  -1984.807617  -15125.00000    111.090950
    5670           0      -173.647873  -1984.807617  -15375.00000    107.700829
    5671           0      -173.647873  -1984.807617  -15625.00000    104.099213
    5672           0      -173.647873  -1984.807617  -15875.00000    100.762215
    5673           0      -173.647873  -1984.807617  -16125.00000     97.335114
    5674           0      -173.647873  -1984.807617  -16375.00000     94.084709
    5675           0      -173.647873  -1984.807617  -16625.00000     90.813446
    5676           0      -173.647873  -1984.807617  -16875.00000     87.672768
    5677           0      -173.647873  -1984.807617  -17125.00000     84.551476
    5678           0      -173.647873  -1984.807617  -17375.00000     81.536827
    5679           0      -173.647888  -1984.807617  -17625.00000     78.565956
    5680           0      -173.647888  -1984.807617  -17875.00000     75.689583
    5681           0      -173.647888  -1984.807617  -18125.00000     72.871796
    5682           0      -173.647888  -1984.807617  -18375.00000     70.141907
    5683           0      -173.647888  -1984.807617  -18625.00000     67.478592
    5684           0      -173.647888  -1984.807617  -18875.00000     64.897972
    5685           0      -173.647888  -1984.807617  -19125.00000     62.386143
    5686           0      -173.647888  -1984.807617  -19375.00000     59.950722
    5687           0      -173.647873  -1984.807617  -19625.00000     57.581123
    5688           0      -173.647873  -1984.807617  -19875.00000     55.279503
    5689           0      -173.647873  -1984.807617  -20125.00000     53.036419
    5690           0      -173.647873  -1984.807617  -20375.00000     50.850941
    5691           0      -173.647888  -1984.807617  -20625.00000     48.713661
    5692           0      -173.647888  -1984.807617  -20875.00000     46.622948
    5693           0      -173.647888  -1984.807617  -21125.00000     44.568626
    5694           0      -173.647888  -1984.807617  -21375.00000     42.551041
    5695           0      -173.647888  -1984.807617  -21625.00000     40.558083
    5696           0      -173.647888  -1984.807617  -21875.00000     38.595634
    5697           0      -173.647888  -1984.807617  -22125.00000     36.647057
    5698           0      -173.647888  -1984.807617  -22375.00000     34.729111
    5699           0      -173.647888  -1984.807617  -22625.00000     32.815105
    5700           0      -173.647888  -1984.807617  -22875.00000     30.941460
    5701           0      -173.647888  -1984.807617  -23125.00000     29.060543
    5702           0      -173.647888  -1984.807617  -23375.00000     27.243629
    5703           0      -173.647888  -1984.807617  -23625.00000     25.401602
    5704           0      -173.647888  -1984.807617  -23875.00000     23.668072
    5705           0      -173.647888  -1984.807617  -24125.00000     21.874228
    5706           0      -173.647888  -1984.807617  -24375.00000     20.266979
    5707           0      -173.647888  -1984.807617  -24625.00000     18.522053
    5708           0      -173.647888  -1984.807617  -24875.00000     17.132568
    5709           0      -173.647903  -1984.807617  -25125.00000     15.317919
    5710           0      -173.647903  -1984.807617  -25375.00000     14.444296
    5711           0      -173.647903  -1984.807617  -25625.00000     12.684487
    5712           0      -173.647888  -1984.807617  -25875.00000      9.621019
    5713           0       -57.882427  -1994.935791  -13625.00000    129.814758
    5714           0       -57.882427  -1994.935791  -13875.00000    126.988861
    5715           0       -57.882427  -1994.935791  -14125.00000    126.968063
    5716           0       -57.882427  -1994.935791  -14375.00000    121.255325
    5717           0       -57.882427  -1994.935791  -14625.00000    117.794189
    5718           0       -57.882427  -1994.935791  -14875.00000    113.740883
    5719           0       -57.882427  -1994.935791  -15125.00000    110.057159
    5720           0       -57.882427  -1994.935791  -15375.00000    106.177498
    5721           0       -57.882427  -1994.935791  -15625.00000    102.561554
    5722           0       -57.882427  -1994.935791  -15875.00000     98.844551
    5723           0       -57.882427  -1994.935791  -16125.00000     95.306732
    5724           0       -57.882427  -1994.935791  -16375.00000     91.742447
    5725           0       -57.882427  -1994.935791  -16625.00000     88.308540
    5726           0       -57.882427  -1994.935791  -16875.00000     84.892372
    5727           0       -57.882427  -1994.935791  -17125.00000     81.583191
    5728           0       -57.882427  -1994.935791  -17375.00000     78.319237
    5729           0       -57.882427  -1994.935791  -17625.00000     75.152649
    5730           0       -57.882427  -1994.935791  -17875.00000     72.049881
    5731           0       -57.882427  -1994.935791  -18125.00000     69.042175
    5732           0       -57.882427  -1994.935791  -18375.00000     66.111450
    5733           0       -57.882427  -1994.935791  -18625.00000     63.276474
    5734           0       -57.882427  -1994.935791  -18875.00000     60.527077
    5735           0       -57.882427  -1994.935791  -19125.00000     57.873783
    5736           0       -57.882427  -1994.935791  -19375.00000     55.309597
    5737           0       -57.882423  -1994.935791  -19625.00000     52.838966
    5738           0       -57.882420  -1994.935791  -19875.00000     50.455215
    5739           0       -57.882420  -1994.935791  -20125.00000     48.158276
    5740           0       -57.882420  -1994.935791  -20375.00000     45.940376
    5741           0       -57.882420  -1994.935791  -20625.00000     43.798588
    5742           0       -57.882420  -1994.935791  -20875.00000     41.723663
    5743           0       -57.882420  -1994.935791  -21125.00000     39.712124
    5744           0       -57.882420  -1994.935791  -21375.00000     37.753269
    5745           0       -57.882420  -1994.935791  -21625.00000     35.846195
    5746           0       -57.882420  -1994.935791  -21875.00000     33.978344
    5747           0       -57.882420  -1994.935791  -22125.00000     32.155514
    5748           0       -57.882420  -1994.935791  -22375.00000     30.361254
    5749           0       -57.882420  -1994.935791  -22625.00000     28.613825
    5750           0       -57.882420  -1994.935791  -22875.00000     26.887423
    5751           0       -57.882420  -1994.935791  -23125.00000     25.221674
    5752           0       -57.882420  -1994.935791  -23375.00000     23.569931
    5753           0       -57.882420  -1994.935791  -23625.00000     22.008535
    5754           0       -57.882420  -1994.935791  -23875.00000     20.447977
    5755           0       -57.882420  -1994.935791  -24125.00000     19.029028
    5756           0       -57.882420  -1994.935791  -24375.00000     17.578899
    5757           0       -57.882420  -1994.935791  -24625.00000     16.355183
    5758           0       -57.882420  -1994.935791  -24875.00000     15.024426
    5759           0       -57.882420  -1994.935791  -25125.00000     14.031319
    5760           0       -57.882420  -1994.935791  -25375.00000     12.992817
    5761           0       -57.882420  -1994.935791  -25625.00000     11.615932
    5762           0       -57.882423  -1994.935791  -25875.00000     11.771289
    5763           0        57.883011  -1994.935791  -13625.00000    129.229614
    5764           0        57.883011  -1994.935791  -13875.00000    125.091393
    5765           0        57.883011  -1994.935791  -14125.00000    125.522026
    5766           0        57.883011  -1994.935791  -14375.00000    119.801964
    5767           0        57.883011  -1994.935791  -14625.00000    116.368858
    5768           0        57.883011  -1994.935791  -14875.00000    112.341469
    5769           0        57.883011  -1994.935791  -15125.00000    108.704178
    5770           0        57.883011  -1994.935791  -15375.00000    104.849335
    5771           0        57.883011  -1994.935791  -15625.00000    101.274422
    5772           0        57.883011  -1994.935791  -15875.00000     97.589493
    5773           0        57.883011  -1994.935791  -16125.00000     94.089363
    5774           0        57.883011  -1994.935791  -16375.00000     90.560684
    5775           0        57.883018  -1994.935791  -16625.00000     87.164009
    5776           0        57.883018  -1994.935791  -16875.00000     83.785217
    5777           0        57.883018  -1994.935791  -17125.00000     80.513802
    5778           0        57.883018  -1994.935791  -17375.00000     77.288338
    5779           0        57.883018  -1994.935791  -17625.00000     74.160316
    5780           0        57.883018  -1994.935791  -17875.00000     71.096825
    5781           0        57.883018  -1994.935791  -18125.00000     68.128433
    5782           0        57.883018  -1994.935791  -18375.00000     65.237526
    5783           0        57.883018  -1994.935791  -18625.00000     62.442436
    5784           0        57.883018  -1994.935791  -18875.00000     59.733250
    5785           0        57.883018  -1994.935791  -19125.00000     57.120247
    5786           0        57.883018  -1994.935791  -19375.00000     54.596542
    5787           0        57.883018  -1994.935791  -19625.00000     52.166508
    5788           0        57.883018  -1994.935791  -19875.00000     49.823540
    5789           0        57.883018  -1994.935791  -20125.00000     47.567505
    5790           0        57.883018  -1994.935791  -20375.00000     45.390781
    5791           0        57.883018  -1994.935791  -20625.00000     43.290310
    5792           0        57.883018  -1994.935791  -20875.00000     41.257156
    5793           0        57.883018  -1994.935791  -21125.00000     39.287453
    5794           0        57.883018  -1994.935791  -21375.00000     37.371265
    5795           0        57.883018  -1994.935791  -21625.00000     35.506584
    5796           0        57.883018  -1994.935791  -21875.00000     33.682667
    5797           0        57.883018  -1994.935791  -22125.00000     31.902662
    5798           0        57.883018  -1994.935791  -22375.00000     30.154177
    5799           0        57.883018  -1994.935791  -22625.00000     28.449453
    5800           0        57.883022  -1994.935791  -22875.00000     26.771688
    5801           0        57.883026  -1994.935791  -23125.00000     25.147209
    5802           0        57.883026  -1994.935791  -23375.00000     23.548992
    5803           0        57.883026  -1994.935791  -23625.00000     22.024296
    5804           0        57.883026  -1994.935791  -23875.00000     20.526188
    5805           0        57.883026  -1994.935791  -24125.00000     19.132385
    5806           0        57.883026  -1994.935791  -24375.00000     17.762018
    5807           0        57.883026  -1994.935791  -24625.00000     16.534311
    5808           0        57.883026  -1994.935791  -24875.00000     15.327418
    5809           0        57.883026  -1994.935791  -25125.00000     14.239828
    5810           0        57.883026  -1994.935791  -25375.00000     13.400584
    5811           0        57.883026  -1994.935791  -25625.00000     12.069530
    5812           0        57.883018  -1994.935791  -25875.00000     10.801288
    5813           0       173.648453  -1984.807617  -13625.00000    119.186089
    5814           0       173.648453  -1984.807617  -13875.00000    127.127060
    5815           0       173.648453  -1984.807617  -14125.00000    121.647949
    5816           0       173.648438  -1984.807617  -14375.00000    117.633423
    5817           0       173.648438  -1984.807617  -14625.00000    114.139656
    5818           0       173.648438  -1984.807617  -14875.00000    110.695564
    5819           0       173.648438  -1984.807617  -15125.00000    107.026024
    5820           0       173.648438  -1984.807617  -15375.00000    103.729576
    5821           0       173.648438  -1984.807617  -15625.00000    100.241417
    5822           0       173.648438  -1984.807617  -15875.00000     97.006172
    5823           0       173.648438  -1984.807617  -16125.00000     93.691864
    5824           0       173.648438  -1984.807617  -16375.00000     90.549057
    5825           0       173.648438  -1984.807617  -16625.00000     87.391846
    5826           0       173.648438  -1984.807617  -16875.00000     84.363251
    5827           0       173.648438  -1984.807617  -17125.00000     81.358047
    5828           0       173.648438  -1984.807617  -17375.00000     78.459091
    5829           0       173.648438  -1984.807617  -17625.00000     75.606476
    5830           0       173.648438  -1984.807617  -17875.00000     72.848633
    5831           0       173.648438  -1984.807617  -18125.00000     70.151009
    5832           0       173.648422  -1984.807617  -18375.00000     67.541679
    5833           0       173.648407  -1984.807617  -18625.00000     64.999893
    5834           0       173.648407  -1984.807617  -18875.00000     62.541119
    5835           0       173.648407  -1984.807617  -19125.00000     60.151634
    5836           0       173.648407  -1984.807617  -19375.00000     57.838757
    5837           0       173.648407  -1984.807617  -19625.00000     55.591911
    5838           0       173.648407  -1984.807617  -19875.00000     53.413193
    5839           0       173.648407  -1984.807617  -20125.00000     51.293102
    5840           0       173.648407  -1984.807617  -20375.00000     49.230831
    5841           0       173.648407  -1984.807617  -20625.00000     47.216904
    5842           0       173.648407  -1984.807617  -20875.00000     45.249931
    5843           0       173.648407  -1984.807617  -21125.00000     43.319637
    5844           0       173.648407  -1984.807617  -21375.00000     41.426727
    5845           0       173.648407  -1984.807617  -21625.00000     39.558918
    5846           0       173.648407  -1984.807617  -21875.00000     37.722504
    5847           0       173.648407  -1984.807617  -22125.00000     35.900639
    5848           0       173.648407  -1984.807617  -22375.00000     34.110435
    5849           0       173.648392  -1984.807617  -22625.00000     32.325115
    5850           0       173.648376  -1984.807617  -22875.00000     30.581087
    5851           0       173.648392  -1984.807617  -23125.00000     28.831303
    5852           0       173.648392  -1984.807617  -23375.00000     27.145744
    5853           0       173.648392  -1984.807617  -23625.00000     25.437883
    5854           0       173.648376  -1984.807617  -23875.00000     23.836243
    5855           0       173.648376  -1984.807617  -24125.00000     22.180805
    5856           0       173.648376  -1984.807617  -24375.00000     20.702099
    5857           0       173.648376  -1984.807617  -24625.00000     19.102037
    5858           0       173.648376  -1984.807617  -24875.00000     17.828968
    5859           0       173.648376  -1984.807617  -25125.00000     16.167091
    5860           0       173.648376  -1984.807617  -25375.00000     15.395832
    5861           0       173.648376  -1984.807617  -25625.00000     13.723901
    5862           0       173.648422  -1984.807617  -25875.00000     11.124272
    5863           0       289.413879  -1974.679443  -13625.00000    118.696350
    5864           0       289.413879  -1974.679443  -13875.00000    117.788544
    5865           0       289.413879  -1974.679443  -14125.00000    117.433907
    5866           0       289.413879  -1974.679443  -14375.00000    112.508583
    5867           0       289.413879  -1974.679443  -14625.00000    109.476173
    5868           0       289.413879  -1974.679443  -14875.00000    106.023529
    5869           0       289.413879  -1974.679443  -15125.00000    102.805267
    5870           0       289.413879  -1974.679443  -15375.00000     99.489014
    5871           0       289.413879  -1974.679443  -15625.00000     96.365166
    5872           0       289.413879  -1974.679443  -15875.00000     93.180176
    5873           0       289.413879  -1974.679443  -16125.00000     90.142807
    5874           0       289.413879  -1974.679443  -16375.00000     87.089561
    5875           0       289.413879  -1974.679443  -16625.00000     84.150398
    5876           0       289.413879  -1974.679443  -16875.00000     81.225746
    5877           0       289.413849  -1974.679443  -17125.00000     78.395668
    5878           0       289.413849  -1974.679443  -17375.00000     75.599831
    5879           0       289.413849  -1974.679443  -17625.00000     72.887390
    5880           0       289.413849  -1974.679443  -17875.00000     70.221680
    5881           0       289.413849  -1974.679443  -18125.00000     67.632332
    5882           0       289.413849  -1974.679443  -18375.00000     65.096451
    5883           0       289.413849  -1974.679443  -18625.00000     62.630840
    5884           0       289.413849  -1974.679443  -18875.00000     60.220318
    5885           0       289.413849  -1974.679443  -19125.00000     57.873230
    5886           0       289.413849  -1974.679443  -19375.00000     55.578590
    5887           0       289.413849  -1974.679443  -19625.00000     53.339371
    5888           0       289.413849  -1974.679443  -19875.00000     51.147041
    5889           0       289.413849  -1974.679443  -20125.00000     49.001610
    5890           0       289.413849  -1974.679443  -20375.00000     46.896164
    5891           0       289.413849  -1974.679443  -20625.00000     44.829731
    5892           0       289.413849  -1974.679443  -20875.00000     42.796360
    5893           0       289.413849  -1974.679443  -21125.00000     40.795959
    5894           0       289.413818  -1974.679443  -21375.00000     38.822502
    5895           0       289.413818  -1974.679443  -21625.00000     36.878941
    5896           0       289.413818  -1974.679443  -21875.00000     34.957134
    5897           0       289.413818  -1974.679443  -22125.00000     33.066620
    5898           0       289.413818  -1974.679443  -22375.00000     31.193123
    5899           0       289.413818  -1974.679443  -22625.00000     29.359169
    5900           0       289.413818  -1974.679443  -22875.00000     27.536369
    5901           0       289.413818  -1974.679443  -23125.00000     25.772289
    5902           0       289.413818  -1974.679443  -23375.00000     24.008423
    5903           0       289.413818  -1974.679443  -23625.00000     22.340141
    5904           0       289.413818  -1974.679443  -23875.00000     20.647238
    5905           0       289.413818  -1974.679443  -24125.00000     19.116302
    5906           0       289.413818  -1974.679443  -24375.00000     17.503891
    5907           0       289.413818  -1974.679443  -24625.00000     16.173162
    5908           0       289.413818  -1974.679443  -24875.00000     14.635020
    5909           0       289.413818  -1974.679443  -25125.00000     13.583408
    5910           0       289.413818  -1974.679443  -25375.00000     12.207885
    5911           0       289.413788  -1974.679443  -25625.00000     10.999364
    5912           0       289.413849  -1974.679443  -25875.00000     11.435844
    5913           0       403.420563  -1954.577026  -13625.00000    115.103676
    5914           0       403.420563  -1954.577026  -13875.00000    110.770561
    5915           0       403.420563  -1954.577026  -14125.00000    111.851456
    5916           0       403.420563  -1954.577026  -14375.00000    107.235321
    5917           0       403.420563  -1954.577026  -14625.00000    104.581879
    5918           0       403.420563  -1954.577026  -14875.00000    101.454849
    5919           0       403.420563  -1954.577026  -15125.00000     98.656097
    5920           0       403.420563  -1954.577026  -15375.00000     95.677574
    5921           0       403.420563  -1954.577026  -15625.00000     92.931816
    5922           0       403.420563  -1954.577026  -15875.00000     90.103981
    5923           0       403.420563  -1954.577026  -16125.00000     87.419327
    5924           0       403.420563  -1954.577026  -16375.00000     84.720734
    5925           0       403.420563  -1954.577026  -16625.00000     82.117386
    5926           0       403.420563  -1954.577026  -16875.00000     79.533073
    5927           0       403.420563  -1954.577026  -17125.00000     77.020653
    5928           0       403.420563  -1954.577026  -17375.00000     74.542336
    5929           0       403.420563  -1954.577026  -17625.00000     72.123337
    5930           0       403.420563  -1954.577026  -17875.00000     69.743782
    5931           0       403.420563  -1954.577026  -18125.00000     67.414757
    5932           0       403.420563  -1954.577026  -18375.00000     65.124298
    5933           0       403.420563  -1954.577026  -18625.00000     62.876038
    5934           0       403.420563  -1954.577026  -18875.00000     60.661232
    5935           0       403.420563  -1954.577026  -19125.00000     58.479816
    5936           0       403.420563  -1954.577026  -19375.00000     56.324505
    5937           0       403.420563  -1954.577026  -19625.00000     54.194096
    5938           0       403.420563  -1954.577026  -19875.00000     52.082283
    5939           0       403.420563  -1954.577026  -20125.00000     49.988667
    5940           0       403.420563  -1954.577026  -20375.00000     47.907753
    5941           0       403.420563  -1954.577026  -20625.00000     45.841419
    5942           0       403.420563  -1954.577026  -20875.00000     43.784458
    5943           0       403.420563  -1954.577026  -21125.00000     41.742107
    5944           0       403.420563  -1954.577026  -21375.00000     39.708324
    5945           0       403.420563  -1954.577026  -21625.00000     37.692760
    5946           0       403.420563  -1954.577026  -21875.00000     35.686695
    5947           0       403.420563  -1954.577026  -22125.00000     33.705715
    5948           0       403.420563  -1954.577026  -22375.00000     31.736078
    5949           0       403.420563  -1954.577026  -22625.00000     29.801666
    5950           0       403.420563  -1954.577026  -22875.00000     27.881199
    5951           0       403.420563  -1954.577026  -23125.00000     26.009687
    5952           0       403.420563  -1954.577026  -23375.00000     24.156700
    5953           0       403.420563  -1954.577026  -23625.00000     22.369640
    5954           0       403.420563  -1954.577026  -23875.00000     20.611683
    5955           0       403.420563  -1954.577026  -24125.00000     18.935274
    5956           0       403.420563  -1954.577026  -24375.00000     17.316149
    5957           0       403.420563  -1954.577026  -24625.00000     15.776632
    5958           0       403.420563  -1954.577026  -24875.00000     14.365975
    5959           0       403.420563  -1954.577026  -25125.00000     12.981262
    5960           0       403.420563  -1954.577026  -25375.00000     11.894236
    5961           0       403.420563  -1954.577026  -25625.00000     10.559322
    5962           0       403.420563  -1954.577026  -25875.00000      9.411023
    5963           0       515.668518  -1924.500244  -13625.00000    101.469940
    5964           0       515.668518  -1924.500244  -13875.00000    108.787331
    5965           0       515.668518  -1924.500244  -14125.00000    104.614784
    5966           0       515.668518  -1924.500244  -14375.00000    101.805527
    5967           0       515.668518  -1924.500244  -14625.00000     99.452866
    5968           0       515.668518  -1924.500244  -14875.00000     97.047241
    5969           0       515.668518  -1924.500244  -15125.00000     94.553192
    5970           0       515.668518  -1924.500244  -15375.00000     92.293633
    5971           0       515.668518  -1924.500244  -15625.00000     89.929222
    5972           0       515.668518  -1924.500244  -15875.00000     87.732330
    5973           0       515.668518  -1924.500244  -16125.00000     85.494545
    5974           0       515.668518  -1924.500244  -16375.00000     83.370064
    5975           0       515.668518  -1924.500244  -16625.00000     81.239639
    5976           0       515.668518  -1924.500244  -16875.00000     79.189667
    5977           0       515.668518  -1924.500244  -17125.00000     77.150017
    5978           0       515.668518  -1924.500244  -17375.00000     75.167938
    5979           0       515.668518  -1924.500244  -17625.00000     73.200165
    5980           0       515.668518  -1924.500244  -17875.00000     71.270844
    5981           0       515.668518  -1924.500244  -18125.00000     69.351234
    5982           0       515.668518  -1924.500244  -18375.00000     67.451935
    5983           0       515.668518  -1924.500244  -18625.00000     65.552422
    5984           0       515.668518  -1924.500244  -18875.00000     63.656101
    5985           0       515.668518  -1924.500244  -19125.00000     61.747818
    5986           0       515.668518  -1924.500244  -19375.00000     59.828342
    5987           0       515.668518  -1924.500244  -19625.00000     57.886749
    5988           0       515.668518  -1924.500244  -19875.00000     55.924404
    5989           0       515.668518  -1924.500244  -20125.00000     53.933910
    5990           0       515.668518  -1924.500244  -20375.00000     51.919533
    5991           0       515.668518  -1924.500244  -20625.00000     49.876244
    5992           0       515.668518  -1924.500244  -20875.00000     47.812836
    5993           0       515.668518  -1924.500244  -21125.00000     45.724529
    5994           0       515.668518  -1924.500244  -21375.00000     43.626266
    5995           0       515.668518  -1924.500244  -21625.00000     41.509949
    5996           0       515.668518  -1924.500244  -21875.00000     39.399158
    5997           0       515.668518  -1924.500244  -22125.00000     37.277020
    5998           0       515.668518  -1924.500244  -22375.00000     35.180595
    5999           0       515.668518  -1924.500244  -22625.00000     33.076019
    6000           0       515.668579  -1924.500244  -22875.00000     31.023211
    6001           0       515.668579  -1924.500244  -23125.00000     28.958914
    6002           0       515.668579  -1924.500244  -23375.00000     26.982231
    6003           0       515.668579  -1924.500244  -23625.00000     24.981827
    6004           0       515.668579  -1924.500244  -23875.00000     23.121439
    6005           0       515.668579  -1924.500244  -24125.00000     21.215658
    6006           0       515.668579  -1924.500244  -24375.00000     19.525707
    6007           0       515.668579  -1924.500244  -24625.00000     17.762281
    6008           0       515.668579  -1924.500244  -24875.00000     16.327827
    6009           0       515.668579  -1924.500244  -25125.00000     14.749604
    6010           0       515.668579  -1924.500244  -25375.00000     13.761918
    6011           0       515.668579  -1924.500244  -25625.00000     12.575614
    6012           0       515.668579  -1924.500244  -25875.00000     11.273763
    6013           0       627.916504  -1894.423340  -13625.00000     95.303947
    6014           0       627.916504  -1894.423340  -13875.00000     96.944885
    6015           0       627.916504  -1894.423340  -14125.00000     96.685265
    6016           0       627.916504  -1894.423340  -14375.00000     93.664139
    6017           0       627.916504  -1894.423340  -14625.00000     91.815681
    6018           0       627.916504  -1894.423340  -14875.00000     89.847679
    6019           0       627.916504  -1894.423340  -15125.00000     87.903366
    6020           0       627.916504  -1894.423340  -15375.00000     85.999878
    6021           0       627.916504  -1894.423340  -15625.00000     84.166687
    6022           0       627.916504  -1894.423340  -15875.00000     82.335548
    6023           0       627.916504  -1894.423340  -16125.00000     80.579208
    6024           0       627.916504  -1894.423340  -16375.00000     78.824814
    6025           0       627.916504  -1894.423340  -16625.00000     77.131645
    6026           0       627.916504  -1894.423340  -16875.00000     75.442894
    6027           0       627.916504  -1894.423340  -17125.00000     73.798965
    6028           0       627.916504  -1894.423340  -17375.00000     72.157227
    6029           0       627.916504  -1894.423340  -17625.00000     70.541557
    6030           0       627.916504  -1894.423340  -17875.00000     68.919296
    6031           0       627.916504  -1894.423340  -18125.00000     67.301811
    6032           0       627.916504  -1894.423340  -18375.00000     65.663414
    6033           0       627.916504  -1894.423340  -18625.00000     64.007614
    6034           0       627.916504  -1894.423340  -18875.00000     62.314491
    6035           0       627.916504  -1894.423340  -19125.00000     60.584106
    6036           0       627.916504  -1894.423340  -19375.00000     58.802242
    6037           0       627.916504  -1894.423340  -19625.00000     56.969158
    6038           0       627.916504  -1894.423340  -19875.00000     55.076332
    6039           0       627.916504  -1894.423340  -20125.00000     53.126884
    6040           0       627.916504  -1894.423340  -20375.00000     51.117367
    6041           0       627.916504  -1894.423340  -20625.00000     49.055389
    6042           0       627.916504  -1894.423340  -20875.00000     46.940895
    6043           0       627.916504  -1894.423340  -21125.00000     44.787079
    6044           0       627.916504  -1894.423340  -21375.00000     42.594139
    6045           0       627.916504  -1894.423340  -21625.00000     40.382324
    6046           0       627.916504  -1894.423340  -21875.00000     38.146904
    6047           0       627.916504  -1894.423340  -22125.00000     35.918785
    6048           0       627.916504  -1894.423340  -22375.00000     33.680241
    6049           0       627.916504  -1894.423340  -22625.00000     31.481327
    6050           0       627.916565  -1894.423340  -22875.00000     29.278534
    6051           0       627.916565  -1894.423340  -23125.00000     27.159206
    6052           0       627.916565  -1894.423340  -23375.00000     25.032370
    6053           0       627.916565  -1894.423340  -23625.00000     23.057358
    6054           0       627.916565  -1894.423340  -23875.00000     21.057398
    6055           0       627.916565  -1894.423340  -24125.00000     19.324486
    6056           0       627.916565  -1894.423340  -24375.00000     17.531563
    6057           0       627.916565  -1894.423340  -24625.00000     16.195024
    6058           0       627.916565  -1894.423340  -24875.00000     14.742554
    6059           0       627.916565  -1894.423340  -25125.00000     14.038888
    6060           0       627.916565  -1894.423340  -25375.00000     13.079473
    6061           0       627.916565  -1894.423340  -25625.00000     13.214661
    6062           0       627.916565  -1894.423340  -25875.00000     13.973961
    6063           0       736.700439  -1854.829224  -13625.00000     91.235603
    6064           0       736.700439  -1854.829224  -13875.00000     87.880928
    6065           0       736.700439  -1854.829224  -14125.00000     89.584702
    6066           0       736.700439  -1854.829224  -14375.00000     86.887238
    6067           0       736.700439  -1854.829224  -14625.00000     85.462555
    6068           0       736.700439  -1854.829224  -14875.00000     83.873177
    6069           0       736.700439  -1854.829224  -15125.00000     82.403694
    6070           0       736.700439  -1854.829224  -15375.00000     80.885017
    6071           0       736.700439  -1854.829224  -15625.00000     79.475609
    6072           0       736.700439  -1854.829224  -15875.00000     78.048958
    6073           0       736.700439  -1854.829224  -16125.00000     76.683044
    6074           0       736.700439  -1854.829224  -16375.00000     75.326195
    6075           0       736.700439  -1854.829224  -16625.00000     73.999870
    6076           0       736.700439  -1854.829224  -16875.00000     72.686501
    6077           0       736.700439  -1854.829224  -17125.00000     71.383545
    6078           0       736.700439  -1854.829224  -17375.00000     70.084473
    6079           0       736.700439  -1854.829224  -17625.00000     68.777046
    6080           0       736.700439  -1854.829224  -17875.00000     67.456573
    6081           0       736.700439  -1854.829224  -18125.00000     66.107735
    6082           0       736.700439  -1854.829224  -18375.00000     64.725136
    6083           0       736.700439  -1854.829224  -18625.00000     63.294289
    6084           0       736.700439  -1854.829224  -18875.00000     61.809517
    6085           0       736.700439  -1854.829224  -19125.00000     60.259823
    6086           0       736.700439  -1854.829224  -19375.00000     58.640598
    6087           0       736.700439  -1854.829224  -19625.00000     56.946136
    6088           0       736.700439  -1854.829224  -19875.00000     55.173916
    6089           0       736.700439  -1854.829224  -20125.00000     53.324608
    6090           0       736.700439  -1854.829224  -20375.00000     51.398018
    6091           0       736.700439  -1854.829224  -20625.00000     49.401691
    6092           0       736.700439  -1854.829224  -20875.00000     47.337017
    6093           0       736.700439  -1854.829224  -21125.00000     45.218658
    6094           0       736.700439  -1854.829224  -21375.00000     43.047829
    6095           0       736.700439  -1854.829224  -21625.00000     40.846516
    6096           0       736.700439  -1854.829224  -21875.00000     38.613243
    6097           0       736.700439  -1854.829224  -22125.00000     36.377914
    6098           0       736.700439  -1854.829224  -22375.00000     34.133778
    6099           0       736.700439  -1854.829224  -22625.00000     31.919827
    6100           0       736.700439  -1854.829224  -22875.00000     29.723118
    6101           0       736.700439  -1854.829224  -23125.00000     27.592762
    6102           0       736.700439  -1854.829224  -23375.00000     25.514482
    6103           0       736.700439  -1854.829224  -23625.00000     23.543587
    6104           0       736.700439  -1854.829224  -23875.00000     21.685764
    6105           0       736.700439  -1854.829224  -24125.00000     19.976236
    6106           0       736.700439  -1854.829224  -24375.00000     18.504499
    6107           0       736.700439  -1854.829224  -24625.00000     17.191483
    6108           0       736.700439  -1854.829224  -24875.00000     16.350517
    6109           0       736.700439  -1854.829224  -25125.00000     15.600635
    6110           0       736.700439  -1854.829224  -25375.00000     15.620000
    6111           0       736.700439  -1854.829224  -25625.00000     15.310772
    6112           0       736.700439  -1854.829224  -25875.00000     16.461483
    6113           0       842.020264  -1805.717773  -13625.00000     79.165199
    6114           0       842.020264  -1805.717773  -13875.00000     85.526237
    6115           0       842.020264  -1805.717773  -14125.00000     82.860649
    6116           0       842.020264  -1805.717773  -14375.00000     81.467873
    6117           0       842.020264  -1805.717773  -14625.00000     80.403259
    6118           0       842.020264  -1805.717773  -14875.00000     79.167747
    6119           0       842.020264  -1805.717773  -15125.00000     78.000069
    6120           0       842.020264  -1805.717773  -15375.00000     76.889641
    6121           0       842.020264  -1805.717773  -15625.00000     75.776924
    6122           0       842.020264  -1805.717773  -15875.00000     74.718330
    6123           0       842.020264  -1805.717773  -16125.00000     73.663536
    6124           0       842.020264  -1805.717773  -16375.00000     72.642372
    6125           0       842.020264  -1805.717773  -16625.00000     71.623871
    6126           0       842.020264  -1805.717773  -16875.00000     70.618576
    6127           0       842.020264  -1805.717773  -17125.00000     69.605507
    6128           0       842.020264  -1805.717773  -17375.00000     68.583580
    6129           0       842.020264  -1805.717773  -17625.00000     67.536667
    6130           0       842.020264  -1805.717773  -17875.00000     66.457901
    6131           0       842.020264  -1805.717773  -18125.00000     65.334000
    6132           0       842.020264  -1805.717773  -18375.00000     64.156654
    6133           0       842.020264  -1805.717773  -18625.00000     62.915051
    6134           0       842.020264  -1805.717773  -18875.00000     61.602417
    6135           0       842.020264  -1805.717773  -19125.00000     60.210430
    6136           0       842.020264  -1805.717773  -19375.00000     58.735748
    6137           0       842.020264  -1805.717773  -19625.00000     57.172562
    6138           0       842.020264  -1805.717773  -19875.00000     55.522278
    6139           0       842.020264  -1805.717773  -20125.00000     53.781128
    6140           0       842.020264  -1805.717773  -20375.00000     51.956589
    6141           0       842.020264  -1805.717773  -20625.00000     50.045925
    6142           0       842.020264  -1805.717773  -20875.00000     48.064281
    6143           0       842.020264  -1805.717773  -21125.00000     46.008060
    6144           0       842.020264  -1805.717773  -21375.00000     43.902431
    6145           0       842.020264  -1805.717773  -21625.00000     41.739681
    6146           0       842.020264  -1805.717773  -21875.00000     39.558743
    6147           0       842.020264  -1805.717773  -22125.00000     37.342316
    6148           0       842.020264  -1805.717773  -22375.00000     35.149345
    6149           0       842.020264  -1805.717773  -22625.00000     32.944569
    6150           0       842.020264  -1805.717773  -22875.00000     30.817118
    6151           0       842.020264  -1805.717773  -23125.00000     28.702244
    6152           0       842.020264  -1805.717773  -23375.00000     26.734570
    6153           0       842.020264  -1805.717773  -23625.00000     24.807398
    6154           0       842.020264  -1805.717773  -23875.00000     23.118200
    6155           0       842.020264  -1805.717773  -24125.00000     21.512810
    6156           0       842.020264  -1805.717773  -24375.00000     20.250191
    6157           0       842.020264  -1805.717773  -24625.00000     19.157021
    6158           0       842.020264  -1805.717773  -24875.00000     18.467258
    6159           0       842.020264  -1805.717773  -25125.00000     18.108643
    6160           0       842.020264  -1805.717773  -25375.00000     18.063316
    6161           0       842.020264  -1805.717773  -25625.00000     18.661831
    6162           0       842.020264  -1805.717773  -25875.00000     18.816755
    6163           0       947.340210  -1756.606201  -13625.00000     72.094414
    6164           0       947.340210  -1756.606201  -13875.00000     75.329147
    6165           0       947.340210  -1756.606201  -14125.00000     75.143654
    6166           0       947.340210  -1756.606201  -14375.00000     73.825256
    6167           0       947.340210  -1756.606201  -14625.00000     72.960297
    6168           0       947.340210  -1756.606201  -14875.00000     72.230682
    6169           0       947.340210  -1756.606201  -15125.00000     71.366928
    6170           0       947.340210  -1756.606201  -15375.00000     70.642906
    6171           0       947.340210  -1756.606201  -15625.00000     69.889839
    6172           0       947.340210  -1756.606201  -15875.00000     69.197533
    6173           0       947.340088  -1756.606201  -16125.00000     68.512726
    6174           0       947.340088  -1756.606201  -16375.00000     67.858803
    6175           0       947.340088  -1756.606201  -16625.00000     67.215096
    6176           0       947.340088  -1756.606201  -16875.00000     66.580360
    6177           0       947.340088  -1756.606201  -17125.00000     65.942329
    6178           0       947.340088  -1756.606201  -17375.00000     65.289162
    6179           0       947.340088  -1756.606201  -17625.00000     64.609863
    6180           0       947.340088  -1756.606445  -17875.00000     63.888969
    6181           0       947.340088  -1756.606445  -18125.00000     63.115955
    6182           0       947.340088  -1756.606445  -18375.00000     62.275513
    6183           0       947.340088  -1756.606445  -18625.00000     61.358624
    6184           0       947.340088  -1756.606445  -18875.00000     60.352089
    6185           0       947.340088  -1756.606445  -19125.00000     59.249687
    6186           0       947.340088  -1756.606445  -19375.00000     58.041218
    6187           0       947.340088  -1756.606445  -19625.00000     56.724583
    6188           0       947.340088  -1756.606445  -19875.00000     55.292850
    6189           0       947.340088  -1756.606445  -20125.00000     53.749546
    6190           0       947.340088  -1756.606445  -20375.00000     52.090805
    6191           0       947.340088  -1756.606445  -20625.00000     50.327618
    6192           0       947.340088  -1756.606445  -20875.00000     48.458164
    6193           0       947.340088  -1756.606445  -21125.00000     46.503307
    6194           0       947.340088  -1756.606445  -21375.00000     44.460712
    6195           0       947.340088  -1756.606445  -21625.00000     42.364601
    6196           0       947.340088  -1756.606445  -21875.00000     40.207073
    6197           0       947.340088  -1756.606445  -22125.00000     38.041309
    6198           0       947.340088  -1756.606445  -22375.00000     35.844891
    6199           0       947.340088  -1756.606445  -22625.00000     33.700012
    6200           0       947.340088  -1756.606445  -22875.00000     31.555105
    6201           0       947.340088  -1756.606445  -23125.00000     29.540108
    6202           0       947.340088  -1756.606445  -23375.00000     27.551912
    6203           0       947.340088  -1756.606445  -23625.00000     25.800789
    6204           0       947.340088  -1756.606445  -23875.00000     24.098598
    6205           0       947.340088  -1756.606445  -24125.00000     22.782576
    6206           0       947.340088  -1756.606445  -24375.00000     21.532183
    6207           0       947.340088  -1756.606445  -24625.00000     20.848612
    6208           0       947.340088  -1756.606445  -24875.00000     20.240442
    6209           0       947.340088  -1756.606445  -25125.00000     20.317926
    6210           0       947.340088  -1756.606445  -25375.00000     20.492620
    6211           0       947.340088  -1756.606445  -25625.00000     21.520603
    6212           0       947.340088  -1756.606445  -25875.00000     21.951567
    6213           0      1047.595947  -1698.723511  -13625.00000     71.763412
    6214           0      1047.595947  -1698.723511  -13875.00000     69.026100
    6215           0      1047.595947  -1698.723511  -14125.00000     70.812706
    6216           0      1047.595947  -1698.723511  -14375.00000     69.424538
    6217           0      1047.595947  -1698.723511  -14625.00000     68.633347
    6218           0      1047.595947  -1698.723511  -14875.00000     68.025230
    6219           0      1047.595947  -1698.723511  -15125.00000     67.290634
    6220           0      1047.595947  -1698.723511  -15375.00000     66.664223
    6221           0      1047.595947  -1698.723511  -15625.00000     66.028397
    6222           0      1047.595947  -1698.723511  -15875.00000     65.451591
    6223           0      1047.595947  -1698.723511  -16125.00000     64.880707
    6224           0      1047.595947  -1698.723511  -16375.00000     64.358101
    6225           0      1047.595947  -1698.723511  -16625.00000     63.839836
    6226           0      1047.595947  -1698.723511  -16875.00000     63.354008
    6227           0      1047.595947  -1698.723511  -17125.00000     62.862022
    6228           0      1047.595947  -1698.723511  -17375.00000     62.379551
    6229           0      1047.595947  -1698.723511  -17625.00000     61.872673
    6230           0      1047.595947  -1698.723511  -17875.00000     61.347649
    6231           0      1047.595947  -1698.723511  -18125.00000     60.775284
    6232           0      1047.595947  -1698.723511  -18375.00000     60.155499
    6233           0      1047.595947  -1698.723511  -18625.00000     59.464039
    6234           0      1047.595947  -1698.723511  -18875.00000     58.697292
    6235           0      1047.595947  -1698.723511  -19125.00000     57.836475
    6236           0      1047.595947  -1698.723511  -19375.00000     56.876938
    6237           0      1047.595947  -1698.723511  -19625.00000     55.806190
    6238           0      1047.595947  -1698.723511  -19875.00000     54.620827
    6239           0      1047.595947  -1698.723511  -20125.00000     53.315670
    6240           0      1047.595947  -1698.723511  -20375.00000     51.890289
    6241           0      1047.595947  -1698.723511  -20625.00000     50.347778
    6242           0      1047.595947  -1698.723511  -20875.00000     48.691647
    6243           0      1047.595947  -1698.723511  -21125.00000     46.933853
    6244           0      1047.595947  -1698.723511  -21375.00000     45.081882
    6245           0      1047.595947  -1698.723511  -21625.00000     43.156612
    6246           0      1047.595947  -1698.723511  -21875.00000     41.168720
    6247           0      1047.595947  -1698.723511  -22125.00000     39.147327
    6248           0      1047.595947  -1698.723511  -22375.00000     37.105484
    6249           0      1047.595947  -1698.723511  -22625.00000     35.078941
    6250           0      1047.595947  -1698.723511  -22875.00000     33.084145
    6251           0      1047.595947  -1698.723511  -23125.00000     31.159555
    6252           0      1047.595947  -1698.723511  -23375.00000     29.332542
    6253           0      1047.595947  -1698.723511  -23625.00000     27.632124
    6254           0      1047.595947  -1698.723511  -23875.00000     26.120295
    6255           0      1047.595947  -1698.723511  -24125.00000     24.777683
    6256           0      1047.595947  -1698.723511  -24375.00000     23.762575
    6257           0      1047.595947  -1698.723511  -24625.00000     22.895725
    6258           0      1047.595947  -1698.723511  -24875.00000     22.573742
    6259           0      1047.595947  -1698.723511  -25125.00000     22.241894
    6260           0      1047.595947  -1698.723511  -25375.00000     22.763006
    6261           0      1047.595947  -1698.723511  -25625.00000     22.704702
    6262           0      1047.595947  -1698.723511  -25875.00000     24.001713
    6263           0      1142.787720  -1632.069580  -13625.00000     66.109154
    6264           0      1142.787720  -1632.069580  -13875.00000     71.295708
    6265           0      1142.787720  -1632.069580  -14125.00000     69.169411
    6266           0      1142.787720  -1632.069580  -14375.00000     68.217583
    6267           0      1142.787720  -1632.069580  -14625.00000     67.451332
    6268           0      1142.787720  -1632.069580  -14875.00000     66.486015
    6269           0      1142.787720  -1632.069580  -15125.00000     65.631729
    6270           0      1142.787720  -1632.069580  -15375.00000     64.752281
    6271           0      1142.787720  -1632.069580  -15625.00000     63.924419
    6272           0      1142.787720  -1632.069580  -15875.00000     63.104759
    6273           0      1142.787720  -1632.069580  -16125.00000     62.337631
    6274           0      1142.787720  -1632.069580  -16375.00000     61.589886
    6275           0      1142.787720  -1632.069580  -16625.00000     60.894432
    6276           0      1142.787720  -1632.069580  -16875.00000     60.221859
    6277           0      1142.787720  -1632.069580  -17125.00000     59.594509
    6278           0      1142.787720  -1632.069580  -17375.00000     58.985279
    6279           0      1142.787720  -1632.069580  -17625.00000     58.405888
    6280           0      1142.787720  -1632.069580  -17875.00000     57.830448
    6281           0      1142.787720  -1632.069580  -18125.00000     57.260696
    6282           0      1142.787720  -1632.069580  -18375.00000     56.671661
    6283           0      1142.787720  -1632.069580  -18625.00000     56.057182
    6284           0      1142.787720  -1632.069580  -18875.00000     55.394314
    6285           0      1142.787720  -1632.069580  -19125.00000     54.672325
    6286           0      1142.787720  -1632.069580  -19375.00000     53.872459
    6287           0      1142.787842  -1632.069580  -19625.00000     52.983036
    6288           0      1142.787842  -1632.069580  -19875.00000     51.992081
    6289           0      1142.787842  -1632.069580  -20125.00000     50.889935
    6290           0      1142.787842  -1632.069580  -20375.00000     49.673794
    6291           0      1142.787842  -1632.069580  -20625.00000     48.337719
    6292           0      1142.787842  -1632.069580  -20875.00000     46.890079
    6293           0      1142.787842  -1632.069580  -21125.00000     45.328751
    6294           0      1142.787842  -1632.069580  -21375.00000     43.675014
    6295           0      1142.787842  -1632.069580  -21625.00000     41.928925
    6296           0      1142.787842  -1632.069580  -21875.00000     40.126476
    6297           0      1142.787842  -1632.069580  -22125.00000     38.266327
    6298           0      1142.787842  -1632.069580  -22375.00000     36.401615
    6299           0      1142.787842  -1632.069580  -22625.00000     34.523937
    6300           0      1142.787842  -1632.069580  -22875.00000     32.707146
    6301           0      1142.787842  -1632.069580  -23125.00000     30.928011
    6302           0      1142.787842  -1632.069580  -23375.00000     29.285563
    6303           0      1142.787842  -1632.069580  -23625.00000     27.732609
    6304           0      1142.787842  -1632.069580  -23875.00000     26.396149
    6305           0      1142.787842  -1632.069580  -24125.00000     25.197601
    6306           0      1142.787842  -1632.069580  -24375.00000     24.285061
    6307           0      1142.787842  -1632.069580  -24625.00000     23.556229
    6308           0      1142.787842  -1632.069580  -24875.00000     23.130390
    6309           0      1142.787842  -1632.069580  -25125.00000     22.979912
    6310           0      1142.787842  -1632.069580  -25375.00000     22.963564
    6311           0      1142.787842  -1632.069580  -25625.00000     23.594843
    6312           0      1142.787720  -1632.069580  -25875.00000     23.416876
    6313           0      1237.979370  -1565.415527  -13625.00000     64.492760
    6314           0      1237.979370  -1565.415527  -13875.00000     67.196480
    6315           0      1237.979370  -1565.415527  -14125.00000     66.651802
    6316           0      1237.979370  -1565.415527  -14375.00000     65.464348
    6317           0      1237.979370  -1565.415527  -14625.00000     64.472351
    6318           0      1237.979370  -1565.415527  -14875.00000     63.627361
    6319           0      1237.979370  -1565.415527  -15125.00000     62.675823
    6320           0      1237.979370  -1565.415527  -15375.00000     61.862492
    6321           0      1237.979370  -1565.415527  -15625.00000     61.044456
    6322           0      1237.979370  -1565.415527  -15875.00000     60.347908
    6323           0      1237.979370  -1565.415527  -16125.00000     59.696674
    6324           0      1237.979370  -1565.415527  -16375.00000     59.170452
    6325           0      1237.979370  -1565.415527  -16625.00000     58.716263
    6326           0      1237.979370  -1565.415527  -16875.00000     58.382133
    6327           0      1237.979370  -1565.415527  -17125.00000     58.126160
    6328           0      1237.979370  -1565.415527  -17375.00000     57.969688
    6329           0      1237.979370  -1565.415527  -17625.00000     57.873829
    6330           0      1237.979370  -1565.415527  -17875.00000     57.837776
    6331           0      1237.979370  -1565.415527  -18125.00000     57.822353
    6332           0      1237.979370  -1565.415527  -18375.00000     57.811184
    6333           0      1237.979370  -1565.415527  -18625.00000     57.766304
    6334           0      1237.979370  -1565.415527  -18875.00000     57.663738
    6335           0      1237.979370  -1565.415527  -19125.00000     57.470619
    6336           0      1237.979370  -1565.415527  -19375.00000     57.162621
    6337           0      1237.979370  -1565.415527  -19625.00000     56.715805
    6338           0      1237.979492  -1565.415527  -19875.00000     56.110519
    6339           0      1237.979492  -1565.415527  -20125.00000     55.334694
    6340           0      1237.979492  -1565.415527  -20375.00000     54.375977
    6341           0      1237.979492  -1565.415527  -20625.00000     53.236317
    6342           0      1237.979492  -1565.415527  -20875.00000     51.911274
    6343           0      1237.979492  -1565.415527  -21125.00000     50.418659
    6344           0      1237.979492  -1565.415527  -21375.00000     48.760643
    6345           0      1237.979492  -1565.415527  -21625.00000     46.972805
    6346           0      1237.979492  -1565.415527  -21875.00000     45.060017
    6347           0      1237.979492  -1565.415527  -22125.00000     43.077908
    6348           0      1237.979492  -1565.415527  -22375.00000     41.026108
    6349           0      1237.979492  -1565.415527  -22625.00000     38.983532
    6350           0      1237.979492  -1565.415527  -22875.00000     36.930511
    6351           0      1237.979492  -1565.415527  -23125.00000     34.975571
    6352           0      1237.979492  -1565.415527  -23375.00000     33.057594
    6353           0      1237.979492  -1565.415527  -23625.00000     31.329887
    6354           0      1237.979492  -1565.415527  -23875.00000     29.657785
    6355           0      1237.979492  -1565.415527  -24125.00000     28.274763
    6356           0      1237.979492  -1565.415527  -24375.00000     26.921783
    6357           0      1237.979492  -1565.415527  -24625.00000     25.985603
    6358           0      1237.979492  -1565.415527  -24875.00000     25.003614
    6359           0      1237.979492  -1565.415527  -25125.00000     24.531761
    6360           0      1237.979492  -1565.415527  -25375.00000     24.073454
    6361           0      1237.979492  -1565.415527  -25625.00000     24.201748
    6362           0      1237.979370  -1565.415527  -25875.00000     23.407948
    6363           0      1326.660889  -1491.003052  -13625.00000     71.746162
    6364           0      1326.660889  -1491.003052  -13875.00000     67.627121
    6365           0      1326.660889  -1491.003052  -14125.00000     68.827469
    6366           0      1326.660889  -1491.003052  -14375.00000     66.874687
    6367           0      1326.660889  -1491.003052  -14625.00000     65.341530
    6368           0      1326.660889  -1491.003052  -14875.00000     64.142761
    6369           0      1326.660889  -1491.003052  -15125.00000     62.734978
    6370           0      1326.660889  -1491.003052  -15375.00000     61.517056
    6371           0      1326.660889  -1491.003052  -15625.00000     60.332161
    6372           0      1326.660889  -1491.003052  -15875.00000     59.288956
    6373           0      1326.660889  -1491.003052  -16125.00000     58.364708
    6374           0      1326.660889  -1491.003052  -16375.00000     57.603447
    6375           0      1326.660889  -1491.003052  -16625.00000     56.999592
    6376           0      1326.660889  -1491.003052  -16875.00000     56.570267
    6377           0      1326.660889  -1491.003052  -17125.00000     56.301418
    6378           0      1326.660889  -1491.003052  -17375.00000     56.188824
    6379           0      1326.660889  -1491.003052  -17625.00000     56.202633
    6380           0      1326.660889  -1491.003052  -17875.00000     56.320988
    6381           0      1326.660889  -1491.003052  -18125.00000     56.501804
    6382           0      1326.660889  -1491.003052  -18375.00000     56.712841
    6383           0      1326.660889  -1491.003052  -18625.00000     56.908508
    6384           0      1326.660889  -1491.003052  -18875.00000     57.054882
    6385           0      1326.660889  -1491.003052  -19125.00000     57.110943
    6386           0      1326.660889  -1491.003052  -19375.00000     57.047924
    6387           0      1326.660889  -1491.003052  -19625.00000     56.834389
    6388           0      1326.660889  -1491.003052  -19875.00000     56.450718
    6389           0      1326.660889  -1491.003052  -20125.00000     55.877281
    6390           0      1326.660889  -1491.003052  -20375.00000     55.105640
    6391           0      1326.660889  -1491.003052  -20625.00000     54.128651
    6392           0      1326.660889  -1491.003052  -20875.00000     52.950169
    6393           0      1326.660889  -1491.003052  -21125.00000     51.575386
    6394           0      1326.660889  -1491.003052  -21375.00000     50.021168
    6395           0      1326.660889  -1491.003052  -21625.00000     48.304001
    6396           0      1326.660889  -1491.003052  -21875.00000     46.453754
    6397           0      1326.660889  -1491.003052  -22125.00000     44.495354
    6398           0      1326.660889  -1491.003052  -22375.00000     42.470207
    6399           0      1326.660889  -1491.003052  -22625.00000     40.405533
    6400           0      1326.660889  -1491.003052  -22875.00000     38.351044
    6401           0      1326.660889  -1491.003052  -23125.00000     36.326199
    6402           0      1326.660889  -1491.003052  -23375.00000     34.386166
    6403           0      1326.660889  -1491.003052  -23625.00000     32.530109
    6404           0      1326.660889  -1491.003052  -23875.00000     30.822479
    6405           0      1326.660889  -1491.003052  -24125.00000     29.228769
    6406           0      1326.660889  -1491.003052  -24375.00000     27.841936
    6407           0      1326.660889  -1491.003052  -24625.00000     26.562229
    6408           0      1326.660889  -1491.003052  -24875.00000     25.578671
    6409           0      1326.660889  -1491.003052  -25125.00000     24.587622
    6410           0      1326.661011  -1491.003052  -25375.00000     23.998791
    6411           0      1326.661011  -1491.002930  -25625.00000     23.647202
    6412           0      1326.661011  -1491.002930  -25875.00000     21.618706
    6413           0      1408.832275  -1408.831787  -13625.00000     74.092842
    6414           0      1408.832275  -1408.831787  -13875.00000     78.215141
    6415           0      1408.832275  -1408.831787  -14125.00000     74.779076
    6416           0      1408.832275  -1408.831787  -14375.00000     72.443672
    6417           0      1408.832275  -1408.831787  -14625.00000     70.195984
    6418           0      1408.832275  -1408.831787  -14875.00000     67.925949
    6419           0      1408.832275  -1408.831787  -15125.00000     65.615540
    6420           0      1408.832275  -1408.831787  -15375.00000     63.448563
    6421           0      1408.832275  -1408.831787  -15625.00000     61.321312
    6422           0      1408.832275  -1408.831787  -15875.00000     59.358818
    6423           0      1408.832275  -1408.831787  -16125.00000     57.547878
    6424           0      1408.832275  -1408.831787  -16375.00000     55.942127
    6425           0      1408.832275  -1408.831787  -16625.00000     54.565300
    6426           0      1408.832275  -1408.831787  -16875.00000     53.425804
    6427           0      1408.832275  -1408.831787  -17125.00000     52.542061
    6428           0      1408.832275  -1408.831787  -17375.00000     51.888107
    6429           0      1408.832275  -1408.831787  -17625.00000     51.458954
    6430           0      1408.832275  -1408.831787  -17875.00000     51.205624
    6431           0      1408.832275  -1408.831787  -18125.00000     51.101746
    6432           0      1408.832275  -1408.831787  -18375.00000     51.089874
    6433           0      1408.832275  -1408.831787  -18625.00000     51.133698
    6434           0      1408.832275  -1408.831787  -18875.00000     51.179718
    6435           0      1408.832031  -1408.831787  -19125.00000     51.192375
    6436           0      1408.832031  -1408.831787  -19375.00000     51.128880
    6437           0      1408.832031  -1408.831787  -19625.00000     50.960606
    6438           0      1408.832031  -1408.831787  -19875.00000     50.657429
    6439           0      1408.832031  -1408.831787  -20125.00000     50.200272
    6440           0      1408.832031  -1408.831787  -20375.00000     49.571411
    6441           0      1408.832031  -1408.831787  -20625.00000     48.762455
    6442           0      1408.832031  -1408.831787  -20875.00000     47.767471
    6443           0      1408.832031  -1408.831787  -21125.00000     46.589798
    6444           0      1408.832031  -1408.831787  -21375.00000     45.235142
    6445           0      1408.832031  -1408.831787  -21625.00000     43.719894
    6446           0      1408.832031  -1408.831787  -21875.00000     42.061520
    6447           0      1408.832031  -1408.831787  -22125.00000     40.290405
    6448           0      1408.832031  -1408.831787  -22375.00000     38.435226
    6449           0      1408.832031  -1408.831787  -22625.00000     36.539108
    6450           0      1408.832031  -1408.831787  -22875.00000     34.639519
    6451           0      1408.832031  -1408.831787  -23125.00000     32.785427
    6452           0      1408.832031  -1408.831787  -23375.00000     31.019527
    6453           0      1408.832031  -1408.831787  -23625.00000     29.379284
    6454           0      1408.832031  -1408.831787  -23875.00000     27.916183
    6455           0      1408.832031  -1408.831787  -24125.00000     26.619568
    6456           0      1408.832031  -1408.831787  -24375.00000     25.586346
    6457           0      1408.832031  -1408.831787  -24625.00000     24.682144
    6458           0      1408.832031  -1408.831787  -24875.00000     24.122549
    6459           0      1408.832031  -1408.831787  -25125.00000     23.651649
    6460           0      1408.832031  -1408.831787  -25375.00000     23.321638
    6461           0      1408.832153  -1408.831787  -25625.00000     23.563133
    6462           0      1408.832153  -1408.831787  -25875.00000     22.522339
    6463           0      1491.003296  -1326.660645  -13625.00000     82.471497
    6464           0      1491.003296  -1326.660645  -13875.00000     82.490532
    6465           0      1491.003296  -1326.660645  -14125.00000     80.698784
    6466           0      1491.003296  -1326.660645  -14375.00000     77.090675
    6467           0      1491.003296  -1326.660645  -14625.00000     74.274712
    6468           0      1491.003296  -1326.660645  -14875.00000     71.261261
    6469           0      1491.003296  -1326.660645  -15125.00000     68.460709
    6470           0      1491.003296  -1326.660645  -15375.00000     65.718933
    6471           0      1491.003296  -1326.660645  -15625.00000     63.195007
    6472           0      1491.003296  -1326.660645  -15875.00000     60.886734
    6473           0      1491.003296  -1326.660645  -16125.00000     58.839962
    6474           0      1491.003296  -1326.660645  -16375.00000     57.120422
    6475           0      1491.003296  -1326.660645  -16625.00000     55.716007
    6476           0      1491.003296  -1326.660645  -16875.00000     54.679295
    6477           0      1491.003296  -1326.660645  -17125.00000     53.960911
    6478           0      1491.003296  -1326.660645  -17375.00000     53.567841
    6479           0      1491.003296  -1326.660645  -17625.00000     53.427597
    6480           0      1491.003296  -1326.660645  -17875.00000     53.508926
    6481           0      1491.003296  -1326.660645  -18125.00000     53.735115
    6482           0      1491.003296  -1326.660645  -18375.00000     54.058727
    6483           0      1491.003296  -1326.660645  -18625.00000     54.413525
    6484           0      1491.003296  -1326.660645  -18875.00000     54.752953
    6485           0      1491.003296  -1326.660645  -19125.00000     55.026676
    6486           0      1491.003296  -1326.660645  -19375.00000     55.196587
    6487           0      1491.003296  -1326.660645  -19625.00000     55.227295
    6488           0      1491.003296  -1326.660645  -19875.00000     55.090763
    6489           0      1491.003296  -1326.660645  -20125.00000     54.763691
    6490           0      1491.003296  -1326.660645  -20375.00000     54.227898
    6491           0      1491.003296  -1326.660645  -20625.00000     53.470074
    6492           0      1491.003296  -1326.660645  -20875.00000     52.482052
    6493           0      1491.003296  -1326.660645  -21125.00000     51.260342
    6494           0      1491.003296  -1326.660645  -21375.00000     49.808273
    6495           0      1491.003296  -1326.660645  -21625.00000     48.134296
    6496           0      1491.003296  -1326.660645  -21875.00000     46.255943
    6497           0      1491.003296  -1326.660645  -22125.00000     44.198162
    6498           0      1491.003296  -1326.660645  -22375.00000     41.995239
    6499           0      1491.003296  -1326.660645  -22625.00000     39.695015
    6500           0      1491.003296  -1326.660645  -22875.00000     37.346447
    6501           0      1491.003296  -1326.660645  -23125.00000     35.026588
    6502           0      1491.003296  -1326.660645  -23375.00000     32.782703
    6503           0      1491.003296  -1326.660645  -23625.00000     30.725018
    6504           0      1491.003296  -1326.660645  -23875.00000     28.854897
    6505           0      1491.003296  -1326.660645  -24125.00000     27.325827
    6506           0      1491.003296  -1326.660645  -24375.00000     26.014032
    6507           0      1491.003296  -1326.660645  -24625.00000     25.182753
    6508           0      1491.003296  -1326.660645  -24875.00000     24.460474
    6509           0      1491.003296  -1326.660645  -25125.00000     24.307323
    6510           0      1491.003296  -1326.660645  -25375.00000     24.498318
    6511           0      1491.003296  -1326.660645  -25625.00000     23.889328
    6512           0      1491.003296  -1326.660645  -25875.00000     25.850859
    6513           0      1565.416016  -1237.979126  -13625.00000     98.336708
    6514           0      1565.416016  -1237.979126  -13875.00000     89.707672
    6515           0      1565.416016  -1237.979126  -14125.00000     89.536560
    6516           0      1565.416016  -1237.979126  -14375.00000     84.310890
    6517           0      1565.416016  -1237.979126  -14625.00000     80.217682
    6518           0      1565.416016  -1237.979126  -14875.00000     76.243332
    6519           0      1565.416016  -1237.979126  -15125.00000     72.377426
    6520           0      1565.416016  -1237.979126  -15375.00000     68.629890
    6521           0      1565.416016  -1237.979126  -15625.00000     65.239548
    6522           0      1565.416016  -1237.979126  -15875.00000     62.030342
    6523           0      1565.416016  -1237.979126  -16125.00000     59.255703
    6524           0      1565.416016  -1237.979126  -16375.00000     56.784691
    6525           0      1565.416016  -1237.979126  -16625.00000     54.779358
    6526           0      1565.416016  -1237.979126  -16875.00000     53.147064
    6527           0      1565.416016  -1237.979126  -17125.00000     51.952103
    6528           0      1565.416016  -1237.979126  -17375.00000     51.112701
    6529           0      1565.416016  -1237.979126  -17625.00000     50.616741
    6530           0      1565.416016  -1237.979126  -17875.00000     50.384911
    6531           0      1565.416016  -1237.979126  -18125.00000     50.364487
    6532           0      1565.416016  -1237.979126  -18375.00000     50.484364
    6533           0      1565.416016  -1237.979126  -18625.00000     50.682358
    6534           0      1565.416016  -1237.979126  -18875.00000     50.901546
    6535           0      1565.416016  -1237.979126  -19125.00000     51.087044
    6536           0      1565.416016  -1237.979126  -19375.00000     51.196972
    6537           0      1565.416016  -1237.979126  -19625.00000     51.188885
    6538           0      1565.416016  -1237.979126  -19875.00000     51.033669
    6539           0      1565.416016  -1237.979126  -20125.00000     50.701080
    6540           0      1565.416016  -1237.979126  -20375.00000     50.172314
    6541           0      1565.416016  -1237.979126  -20625.00000     49.428165
    6542           0      1565.416016  -1237.979126  -20875.00000     48.458973
    6543           0      1565.416016  -1237.979126  -21125.00000     47.256588
    6544           0      1565.416016  -1237.979126  -21375.00000     45.821579
    6545           0      1565.416016  -1237.979126  -21625.00000     44.159019
    6546           0      1565.416016  -1237.979126  -21875.00000     42.283749
    6547           0      1565.416016  -1237.979126  -22125.00000     40.218937
    6548           0      1565.416016  -1237.979126  -22375.00000     38.001320
    6549           0      1565.416016  -1237.979126  -22625.00000     35.679310
    6550           0      1565.416016  -1237.979126  -22875.00000     33.321693
    6551           0      1565.416016  -1237.979126  -23125.00000     31.008451
    6552           0      1565.416016  -1237.979126  -23375.00000     28.844145
    6553           0      1565.416016  -1237.979126  -23625.00000     26.937180
    6554           0      1565.416016  -1237.979126  -23875.00000     25.394302
    6555           0      1565.416016  -1237.979126  -24125.00000     24.336845
    6556           0      1565.416016  -1237.979126  -24375.00000     23.752584
    6557           0      1565.416016  -1237.979126  -24625.00000     23.819622
    6558           0      1565.416016  -1237.979126  -24875.00000     24.248453
    6559           0      1565.416016  -1237.979126  -25125.00000     25.292892
    6560           0      1565.416016  -1237.979126  -25375.00000     26.781687
    6561           0      1565.416016  -1237.979126  -25625.00000     28.798059
    6562           0      1565.416016  -1237.979126  -25875.00000     27.225737
    6563           0      1632.069946  -1142.787354  -13625.00000    104.441521
    6564           0      1632.069946  -1142.787354  -13875.00000    107.133698
    6565           0      1632.069946  -1142.787354  -14125.00000    100.124672
    6566           0      1632.069946  -1142.787354  -14375.00000     94.153687
    6567           0      1632.069946  -1142.787354  -14625.00000     88.361839
    6568           0      1632.069946  -1142.787354  -14875.00000     83.015198
    6569           0      1632.069946  -1142.787354  -15125.00000     77.377975
    6570           0      1632.069946  -1142.787354  -15375.00000     72.364792
    6571           0      1632.069946  -1142.787354  -15625.00000     67.362419
    6572           0      1632.069946  -1142.787354  -15875.00000     62.896732
    6573           0      1632.069946  -1142.787354  -16125.00000     58.725113
    6574           0      1632.069946  -1142.787354  -16375.00000     55.084408
    6575           0      1632.069946  -1142.787354  -16625.00000     51.907665
    6576           0      1632.069946  -1142.787354  -16875.00000     49.267281
    6577           0      1632.069946  -1142.787354  -17125.00000     47.151249
    6578           0      1632.069946  -1142.787354  -17375.00000     45.530624
    6579           0      1632.069946  -1142.787354  -17625.00000     44.384895
    6580           0      1632.069946  -1142.787354  -17875.00000     43.624989
    6581           0      1632.069946  -1142.787354  -18125.00000     43.205658
    6582           0      1632.069946  -1142.787354  -18375.00000     43.016693
    6583           0      1632.069946  -1142.787354  -18625.00000     43.001621
    6584           0      1632.069946  -1142.787354  -18875.00000     43.059494
    6585           0      1632.069946  -1142.787354  -19125.00000     43.139370
    6586           0      1632.069946  -1142.787354  -19375.00000     43.162701
    6587           0      1632.069946  -1142.787354  -19625.00000     43.091759
    6588           0      1632.069946  -1142.787354  -19875.00000     42.870571
    6589           0      1632.069946  -1142.787354  -20125.00000     42.475517
    6590           0      1632.069946  -1142.787354  -20375.00000     41.868572
    6591           0      1632.069946  -1142.787354  -20625.00000     41.039097
    6592           0      1632.069946  -1142.787354  -20875.00000     39.962566
    6593           0      1632.069946  -1142.787354  -21125.00000     38.640930
    6594           0      1632.069946  -1142.787354  -21375.00000     37.061234
    6595           0      1632.069946  -1142.787354  -21625.00000     35.240166
    6596           0      1632.069946  -1142.787354  -21875.00000     33.178734
    6597           0      1632.069946  -1142.787354  -22125.00000     30.916042
    6598           0      1632.069946  -1142.787354  -22375.00000     28.478077
    6599           0      1632.069946  -1142.787354  -22625.00000     25.946917
    6600           0      1632.069946  -1142.787354  -22875.00000     23.404362
    6601           0      1632.069946  -1142.787354  -23125.00000     21.024570
    6602           0      1632.069946  -1142.787354  -23375.00000     19.007994
    6603           0      1632.069946  -1142.787354  -23625.00000     17.669743
    6604           0      1632.069946  -1142.787354  -23875.00000     17.277393
    6605           0      1632.069946  -1142.787354  -24125.00000     17.996172
    6606           0      1632.069946  -1142.787354  -24375.00000     19.738724
    6607           0      1632.069946  -1142.787354  -24625.00000     22.246988
    6608           0      1632.069946  -1142.787354  -24875.00000     25.334620
    6609           0      1632.069946  -1142.787354  -25125.00000     28.659056
    6610           0      1632.069946  -1142.787354  -25375.00000     32.426697
    6611           0      1632.069946  -1142.787354  -25625.00000     36.663395
    6612           0      1632.069946  -1142.787354  -25875.00000     36.709373
    6613           0      1698.723877  -1047.595581  -13625.00000    120.988556
    6614           0      1698.723877  -1047.595581  -13875.00000    116.875214
    6615           0      1698.723877  -1047.595581  -14125.00000    112.019974
    6616           0      1698.723877  -1047.595581  -14375.00000    103.208939
    6617           0      1698.723877  -1047.595581  -14625.00000     96.822990
    6618           0      1698.723877  -1047.595581  -14875.00000     89.588318
    6619           0      1698.723877  -1047.595581  -15125.00000     83.199020
    6620           0      1698.723877  -1047.595581  -15375.00000     76.766525
    6621           0      1698.723877  -1047.595581  -15625.00000     70.935844
    6622           0      1698.723877  -1047.595581  -15875.00000     65.483353
    6623           0      1698.723877  -1047.595581  -16125.00000     60.652573
    6624           0      1698.723877  -1047.595581  -16375.00000     56.475624
    6625           0      1698.723877  -1047.595581  -16625.00000     53.000130
    6626           0      1698.723877  -1047.595581  -16875.00000     50.303017
    6627           0      1698.723877  -1047.595581  -17125.00000     48.318878
    6628           0      1698.723877  -1047.595581  -17375.00000     47.062618
    6629           0      1698.723877  -1047.595581  -17625.00000     46.391933
    6630           0      1698.723877  -1047.595581  -17875.00000     46.242638
    6631           0      1698.723877  -1047.595581  -18125.00000     46.446091
    6632           0      1698.723877  -1047.595581  -18375.00000     46.904926
    6633           0      1698.723877  -1047.595581  -18625.00000     47.473915
    6634           0      1698.723877  -1047.595581  -18875.00000     48.065907
    6635           0      1698.723877  -1047.595581  -19125.00000     48.576954
    6636           0      1698.723877  -1047.595581  -19375.00000     48.944992
    6637           0      1698.723877  -1047.595581  -19625.00000     49.101757
    6638           0      1698.723877  -1047.595581  -19875.00000     49.009094
    6639           0      1698.723877  -1047.595581  -20125.00000     48.623104
    6640           0      1698.723877  -1047.595581  -20375.00000     47.924911
    6641           0      1698.723877  -1047.595581  -20625.00000     46.885654
    6642           0      1698.723877  -1047.595581  -20875.00000     45.502262
    6643           0      1698.723877  -1047.595581  -21125.00000     43.754951
    6644           0      1698.723877  -1047.595581  -21375.00000     41.655167
    6645           0      1698.723877  -1047.595581  -21625.00000     39.189796
    6646           0      1698.723877  -1047.595581  -21875.00000     36.386471
    6647           0      1698.723877  -1047.595581  -22125.00000     33.242409
    6648           0      1698.723877  -1047.595581  -22375.00000     29.810068
    6649           0      1698.723877  -1047.595581  -22625.00000     26.118052
    6650           0      1698.723877  -1047.595581  -22875.00000     22.280952
    6651           0      1698.723877  -1047.595581  -23125.00000     18.452850
    6652           0      1698.723877  -1047.595581  -23375.00000     15.004902
    6653           0      1698.723877  -1047.595581  -23625.00000     12.625229
    6654           0      1698.723877  -1047.595581  -23875.00000     12.342330
    6655           0      1698.723877  -1047.595581  -24125.00000     14.429370
    6656           0      1698.723877  -1047.595581  -24375.00000     18.308764
    6657           0      1698.723877  -1047.595581  -24625.00000     22.871780
    6658           0      1698.723877  -1047.595581  -24875.00000     28.108538
    6659           0      1698.723877  -1047.595581  -25125.00000     33.099632
    6660           0      1698.723877  -1047.595581  -25375.00000     39.444073
    6661           0      1698.723877  -1047.595581  -25625.00000     42.204926
    6662           0      1698.723877  -1047.595581  -25875.00000     50.332340
    6663           0      1756.606689   -947.339722  -13625.00000    139.563141
    6664           0      1756.606689   -947.339722  -13875.00000    123.111824
    6665           0      1756.606689   -947.339722  -14125.00000    120.709496
    6666           0      1756.606689   -947.339722  -14375.00000    110.142403
    6667           0      1756.606689   -947.339722  -14625.00000    102.421509
    6668           0      1756.606689   -947.339722  -14875.00000     94.207199
    6669           0      1756.606689   -947.339722  -15125.00000     86.986359
    6670           0      1756.606689   -947.339722  -15375.00000     79.691437
    6671           0      1756.606689   -947.339722  -15625.00000     73.418274
    6672           0      1756.606689   -947.339722  -15875.00000     67.488022
    6673           0      1756.606689   -947.339722  -16125.00000     62.630096
    6674           0      1756.606689   -947.339722  -16375.00000     58.499508
    6675           0      1756.606689   -947.339722  -16625.00000     55.487888
    6676           0      1756.606689   -947.339722  -16875.00000     53.382980
    6677           0      1756.606689   -947.339722  -17125.00000     52.278736
    6678           0      1756.606689   -947.339722  -17375.00000     51.964462
    6679           0      1756.606689   -947.339722  -17625.00000     52.327591
    6680           0      1756.606689   -947.339722  -17875.00000     53.160103
    6681           0      1756.606689   -947.339722  -18125.00000     54.287212
    6682           0      1756.606689   -947.339722  -18375.00000     55.550606
    6683           0      1756.606689   -947.339722  -18625.00000     56.802792
    6684           0      1756.606689   -947.339722  -18875.00000     57.943535
    6685           0      1756.606689   -947.339722  -19125.00000     58.871895
    6686           0      1756.606689   -947.339722  -19375.00000     59.528641
    6687           0      1756.606689   -947.339722  -19625.00000     59.851627
    6688           0      1756.606689   -947.339722  -19875.00000     59.804802
    6689           0      1756.606689   -947.339722  -20125.00000     59.354645
    6690           0      1756.606689   -947.339722  -20375.00000     58.476070
    6691           0      1756.606689   -947.339722  -20625.00000     57.157860
    6692           0      1756.606689   -947.339722  -20875.00000     55.378056
    6693           0      1756.606689   -947.339722  -21125.00000     53.145672
    6694           0      1756.606689   -947.339722  -21375.00000     50.436279
    6695           0      1756.606689   -947.339722  -21625.00000     47.281178
    6696           0      1756.606689   -947.339722  -21875.00000     43.648949
    6697           0      1756.606689   -947.339722  -22125.00000     39.600239
    6698           0      1756.606689   -947.339722  -22375.00000     35.094200
    6699           0      1756.606689   -947.339722  -22625.00000     30.238182
    6700           0      1756.606689   -947.339722  -22875.00000     24.993013
    6701           0      1756.606689   -947.339722  -23125.00000     19.575808
    6702           0      1756.606689   -947.339722  -23375.00000     14.093813
    6703           0      1756.606689   -947.339722  -23625.00000      9.490620
    6704           0      1756.606689   -947.339722  -23875.00000      8.086475
    6705           0      1756.606689   -947.339722  -24125.00000     11.711265
    6706           0      1756.606689   -947.339722  -24375.00000     17.601744
    6707           0      1756.606689   -947.339722  -24625.00000     24.229612
    6708           0      1756.606689   -947.339722  -24875.00000     31.067030
    6709           0      1756.606689   -947.339722  -25125.00000     37.852840
    6710           0      1756.606689   -947.339722  -25375.00000     45.692867
    6711           0      1756.606689   -947.339722  -25625.00000     50.685238
    6712           0      1756.606689   -947.339722  -25875.00000     57.313206
    6713           0      1805.718140   -842.019836  -13625.00000    135.547577
    6714           0      1805.718140   -842.019836  -13875.00000    135.837128
    6715           0      1805.718140   -842.019836  -14125.00000    124.976845
    6716           0      1805.718140   -842.019836  -14375.00000    114.995857
    6717           0      1805.718140   -842.019836  -14625.00000    105.773537
    6718           0      1805.718140   -842.019836  -14875.00000     97.571693
    6719           0      1805.718140   -842.019836  -15125.00000     89.443405
    6720           0      1805.718140   -842.019836  -15375.00000     82.752701
    6721           0      1805.718140   -842.019836  -15625.00000     76.746193
    6722           0      1805.718140   -842.019836  -15875.00000     72.160637
    6723           0      1805.718140   -842.019836  -16125.00000     68.690079
    6724           0      1805.718140   -842.019836  -16375.00000     66.556564
    6725           0      1805.718140   -842.019836  -16625.00000     65.569550
    6726           0      1805.718140   -842.019836  -16875.00000     65.610916
    6727           0      1805.718140   -842.019836  -17125.00000     66.480438
    6728           0      1805.718140   -842.019836  -17375.00000     67.923561
    6729           0      1805.718140   -842.019836  -17625.00000     69.767479
    6730           0      1805.718140   -842.019836  -17875.00000     71.777512
    6731           0      1805.718140   -842.019836  -18125.00000     73.840553
    6732           0      1805.718140   -842.019836  -18375.00000     75.789757
    6733           0      1805.718140   -842.019836  -18625.00000     77.562180
    6734           0      1805.718140   -842.019836  -18875.00000     79.050224
    6735           0      1805.718140   -842.019836  -19125.00000     80.221176
    6736           0      1805.718140   -842.019836  -19375.00000     81.007965
    6737           0      1805.718140   -842.019836  -19625.00000     81.393112
    6738           0      1805.718140   -842.019836  -19875.00000     81.335907
    6739           0      1805.718140   -842.019836  -20125.00000     80.825249
    6740           0      1805.718140   -842.019836  -20375.00000     79.838455
    6741           0      1805.718140   -842.019836  -20625.00000     78.365967
    6742           0      1805.718140   -842.019836  -20875.00000     76.399834
    6743           0      1805.718140   -842.019836  -21125.00000     73.929604
    6744           0      1805.718140   -842.019836  -21375.00000     70.963142
    6745           0      1805.718140   -842.019775  -21625.00000     67.488335
    6746           0      1805.718140   -842.019775  -21875.00000     63.535339
    6747           0      1805.718140   -842.019775  -22125.00000     59.092335
    6748           0      1805.718140   -842.019775  -22375.00000     54.227505
    6749           0      1805.718140   -842.019775  -22625.00000     48.940506
    6750           0      1805.718140   -842.019775  -22875.00000     43.377029
    6751           0      1805.718140   -842.019775  -23125.00000     37.601143
    6752           0      1805.718140   -842.019775  -23375.00000     31.960667
    6753           0      1805.718140   -842.019775  -23625.00000     26.835482
    6754           0      1805.718140   -842.019775  -23875.00000     23.172785
    6755           0      1805.718140   -842.019775  -24125.00000     22.164286
    6756           0      1805.718140   -842.019775  -24375.00000     24.361404
    6757           0      1805.718140   -842.019775  -24625.00000     29.549467
    6758           0      1805.718140   -842.019775  -24875.00000     36.118969
    6759           0      1805.718140   -842.019775  -25125.00000     43.497807
    6760           0      1805.718140   -842.019775  -25375.00000     52.033821
    6761           0      1805.718140   -842.019775  -25625.00000     60.392628
    6762           0      1805.718140   -842.019836  -25875.00000     62.121956
    6763           0      1854.829468   -736.699951  -13625.00000    144.836151
    6764           0      1854.829468   -736.699951  -13875.00000    140.356308
    6765           0      1854.829468   -736.699951  -14125.00000    131.518921
    6766           0      1854.829468   -736.699951  -14375.00000    118.908737
    6767           0      1854.829468   -736.699951  -14625.00000    109.905884
    6768           0      1854.829468   -736.699951  -14875.00000    100.311707
    6769           0      1854.829468   -736.699951  -15125.00000     92.487068
    6770           0      1854.829468   -736.699951  -15375.00000     85.904266
    6771           0      1854.829468   -736.699951  -15625.00000     81.173927
    6772           0      1854.829468   -736.699951  -15875.00000     78.250443
    6773           0      1854.829468   -736.699951  -16125.00000     77.032852
    6774           0      1854.829468   -736.699951  -16375.00000     77.380768
    6775           0      1854.829468   -736.699951  -16625.00000     78.851158
    6776           0      1854.829468   -736.699951  -16875.00000     81.234329
    6777           0      1854.829468   -736.699951  -17125.00000     84.092369
    6778           0      1854.829468   -736.699951  -17375.00000     87.270164
    6779           0      1854.829468   -736.699951  -17625.00000     90.467567
    6780           0      1854.829468   -736.699951  -17875.00000     93.603455
    6781           0      1854.829468   -736.699951  -18125.00000     96.498413
    6782           0      1854.829468   -736.699951  -18375.00000     99.118248
    6783           0      1854.829468   -736.699951  -18625.00000    101.359886
    6784           0      1854.829468   -736.699951  -18875.00000    103.211700
    6785           0      1854.829468   -736.699951  -19125.00000    104.614037
    6786           0      1854.829468   -736.699951  -19375.00000    105.563431
    6787           0      1854.829468   -736.699951  -19625.00000    106.023880
    6788           0      1854.829468   -736.699951  -19875.00000    105.992455
    6789           0      1854.829468   -736.699951  -20125.00000    105.446098
    6790           0      1854.829468   -736.699951  -20375.00000    104.378616
    6791           0      1854.829468   -736.699951  -20625.00000    102.774902
    6792           0      1854.829468   -736.699951  -20875.00000    100.623932
    6793           0      1854.829468   -736.699951  -21125.00000     97.917816
    6794           0      1854.829468   -736.699951  -21375.00000     94.640663
    6795           0      1854.829468   -736.699951  -21625.00000     90.795441
    6796           0      1854.829468   -736.699951  -21875.00000     86.362877
    6797           0      1854.829468   -736.699951  -22125.00000     81.366951
    6798           0      1854.829468   -736.699951  -22375.00000     75.790230
    6799           0      1854.829468   -736.699951  -22625.00000     69.701027
    6800           0      1854.829468   -736.699951  -22875.00000     63.102825
    6801           0      1854.829468   -736.699890  -23125.00000     56.168003
    6802           0      1854.829468   -736.699890  -23375.00000     49.001831
    6803           0      1854.829468   -736.699890  -23625.00000     42.062077
    6804           0      1854.829468   -736.699890  -23875.00000     35.904942
    6805           0      1854.829468   -736.699890  -24125.00000     31.723682
    6806           0      1854.829468   -736.699890  -24375.00000     30.991434
    6807           0      1854.829468   -736.699890  -24625.00000     33.983601
    6808           0      1854.829468   -736.699890  -24875.00000     40.693962
    6809           0      1854.829468   -736.699890  -25125.00000     48.130943
    6810           0      1854.829468   -736.699890  -25375.00000     58.564384
    6811           0      1854.829468   -736.699890  -25625.00000     64.912857
    6812           0      1854.829468   -736.699951  -25875.00000     75.493629
    6813           0      1894.423584   -627.916016  -13625.00000    150.540161
    6814           0      1894.423584   -627.916016  -13875.00000    131.644180
    6815           0      1894.423584   -627.916016  -14125.00000    128.099884
    6816           0      1894.423584   -627.916016  -14375.00000    116.815948
    6817           0      1894.423584   -627.916016  -14625.00000    109.037064
    6818           0      1894.423584   -627.916016  -14875.00000    101.015572
    6819           0      1894.423584   -627.916016  -15125.00000     95.300758
    6820           0      1894.423584   -627.916016  -15375.00000     90.786453
    6821           0      1894.423584   -627.916016  -15625.00000     88.573769
    6822           0      1894.423584   -627.916016  -15875.00000     87.920166
    6823           0      1894.423584   -627.916016  -16125.00000     88.917198
    6824           0      1894.423584   -627.916016  -16375.00000     90.963570
    6825           0      1894.423584   -627.916016  -16625.00000     93.815895
    6826           0      1894.423584   -627.916016  -16875.00000     97.071342
    6827           0      1894.423584   -627.916016  -17125.00000    100.517311
    6828           0      1894.423584   -627.916016  -17375.00000    103.934105
    6829           0      1894.423584   -627.916016  -17625.00000    107.201447
    6830           0      1894.423584   -627.916016  -17875.00000    110.212189
    6831           0      1894.423584   -627.916016  -18125.00000    112.910324
    6832           0      1894.423584   -627.916016  -18375.00000    115.246437
    6833           0      1894.423584   -627.916016  -18625.00000    117.198509
    6834           0      1894.423584   -627.916016  -18875.00000    118.743439
    6835           0      1894.423584   -627.916016  -19125.00000    119.874176
    6836           0      1894.423584   -627.916016  -19375.00000    120.577049
    6837           0      1894.423584   -627.916016  -19625.00000    120.849541
    6838           0      1894.423584   -627.916016  -19875.00000    120.678337
    6839           0      1894.423584   -627.916016  -20125.00000    120.060333
    6840           0      1894.423584   -627.916016  -20375.00000    118.977768
    6841           0      1894.423584   -627.916016  -20625.00000    117.425217
    6842           0      1894.423584   -627.916016  -20875.00000    115.377853
    6843           0      1894.423584   -627.916016  -21125.00000    112.829292
    6844           0      1894.423584   -627.916016  -21375.00000    109.746681
    6845           0      1894.423584   -627.916016  -21625.00000    106.127258
    6846           0      1894.423584   -627.916016  -21875.00000    101.931343
    6847           0      1894.423584   -627.916016  -22125.00000     97.169823
    6848           0      1894.423584   -627.916016  -22375.00000     91.801735
    6849           0      1894.423584   -627.916016  -22625.00000     85.872551
    6850           0      1894.423584   -627.916016  -22875.00000     79.358696
    6851           0      1894.423584   -627.916016  -23125.00000     72.387177
    6852           0      1894.423584   -627.916016  -23375.00000     65.016022
    6853           0      1894.423584   -627.916016  -23625.00000     57.572002
    6854           0      1894.423584   -627.916016  -23875.00000     50.417347
    6855           0      1894.423584   -627.916016  -24125.00000     44.352547
    6856           0      1894.423584   -627.916016  -24375.00000     40.539555
    6857           0      1894.423584   -627.916016  -24625.00000     39.897400
    6858           0      1894.423584   -627.916016  -24875.00000     43.331837
    6859           0      1894.423584   -627.916016  -25125.00000     49.007393
    6860           0      1894.423584   -627.916016  -25375.00000     58.103115
    6861           0      1894.423584   -627.916016  -25625.00000     63.309467
    6862           0      1894.423584   -627.916016  -25875.00000     75.640800
    6863           0      1924.500366   -515.667969  -13625.00000    121.823936
    6864           0      1924.500366   -515.667969  -13875.00000    122.465454
    6865           0      1924.500366   -515.667969  -14125.00000    114.903984
    6866           0      1924.500366   -515.667969  -14375.00000    109.275307
    6867           0      1924.500366   -515.667969  -14625.00000    104.574913
    6868           0      1924.500366   -515.667969  -14875.00000    101.450600
    6869           0      1924.500366   -515.667969  -15125.00000     99.653488
    6870           0      1924.500366   -515.667969  -15375.00000     99.429337
    6871           0      1924.500366   -515.667969  -15625.00000    100.321205
    6872           0      1924.500366   -515.667969  -15875.00000    102.167252
    6873           0      1924.500366   -515.667969  -16125.00000    104.559891
    6874           0      1924.500366   -515.667969  -16375.00000    107.285461
    6875           0      1924.500366   -515.667969  -16625.00000    110.084335
    6876           0      1924.500366   -515.667969  -16875.00000    112.828384
    6877           0      1924.500366   -515.667969  -17125.00000    115.388748
    6878           0      1924.500366   -515.667969  -17375.00000    117.715355
    6879           0      1924.500366   -515.667969  -17625.00000    119.757469
    6880           0      1924.500366   -515.667969  -17875.00000    121.508957
    6881           0      1924.500366   -515.667969  -18125.00000    122.956818
    6882           0      1924.500366   -515.667969  -18375.00000    124.113457
    6883           0      1924.500366   -515.667969  -18625.00000    124.980118
    6884           0      1924.500366   -515.667969  -18875.00000    125.573067
    6885           0      1924.500366   -515.667969  -19125.00000    125.895248
    6886           0      1924.500366   -515.667969  -19375.00000    125.959396
    6887           0      1924.500366   -515.667969  -19625.00000    125.763382
    6888           0      1924.500366   -515.667969  -19875.00000    125.312828
    6889           0      1924.500366   -515.667969  -20125.00000    124.596809
    6890           0      1924.500366   -515.667969  -20375.00000    123.612411
    6891           0      1924.500366   -515.667969  -20625.00000    122.337738
    6892           0      1924.500366   -515.667969  -20875.00000    120.761322
    6893           0      1924.500366   -515.667969  -21125.00000    118.848930
    6894           0      1924.500366   -515.667969  -21375.00000    116.582016
    6895           0      1924.500366   -515.667969  -21625.00000    113.913986
    6896           0      1924.500366   -515.667969  -21875.00000    110.822983
    6897           0      1924.500366   -515.667969  -22125.00000    107.252182
    6898           0      1924.500366   -515.667969  -22375.00000    103.184937
    6899           0      1924.500366   -515.667969  -22625.00000     98.561760
    6900           0      1924.500366   -515.667969  -22875.00000     93.388855
    6901           0      1924.500366   -515.667969  -23125.00000     87.625427
    6902           0      1924.500366   -515.667969  -23375.00000     81.337059
    6903           0      1924.500366   -515.667969  -23625.00000     74.561661
    6904           0      1924.500366   -515.667969  -23875.00000     67.504288
    6905           0      1924.500366   -515.667969  -24125.00000     60.454029
    6906           0      1924.500366   -515.667969  -24375.00000     53.927422
    6907           0      1924.500366   -515.667969  -24625.00000     48.858204
    6908           0      1924.500366   -515.667969  -24875.00000     46.230732
    6909           0      1924.500366   -515.667969  -25125.00000     46.621262
    6910           0      1924.500366   -515.667969  -25375.00000     51.695522
    6911           0      1924.500366   -515.667969  -25625.00000     57.088245
    6912           0      1924.500366   -515.667969  -25875.00000     58.458904
    6913           0      1954.577148   -403.420013  -13625.00000    101.552223
    6914           0      1954.577148   -403.420013  -13875.00000    110.076653
    6915           0      1954.577148   -403.420013  -14125.00000    104.950569
    6916           0      1954.577148   -403.420013  -14375.00000    101.329758
    6917           0      1954.577148   -403.420013  -14625.00000    100.582939
    6918           0      1954.577148   -403.420013  -14875.00000    101.838928
    6919           0      1954.577148   -403.420013  -15125.00000    104.298225
    6920           0      1954.577148   -403.420013  -15375.00000    107.893456
    6921           0      1954.577148   -403.420013  -15625.00000    111.626213
    6922           0      1954.577148   -403.420013  -15875.00000    115.423180
    6923           0      1954.577148   -403.420013  -16125.00000    118.871567
    6924           0      1954.577148   -403.420013  -16375.00000    121.956612
    6925           0      1954.577148   -403.420013  -16625.00000    124.541412
    6926           0      1954.577148   -403.420013  -16875.00000    126.665817
    6927           0      1954.577148   -403.420013  -17125.00000    128.308060
    6928           0      1954.577148   -403.420013  -17375.00000    129.533325
    6929           0      1954.577148   -403.420013  -17625.00000    130.365616
    6930           0      1954.577148   -403.420013  -17875.00000    130.873749
    6931           0      1954.577148   -403.420013  -18125.00000    131.094757
    6932           0      1954.577148   -403.420013  -18375.00000    131.088440
    6933           0      1954.577148   -403.420013  -18625.00000    130.889267
    6934           0      1954.577148   -403.420013  -18875.00000    130.542206
    6935           0      1954.577148   -403.420013  -19125.00000    130.072357
    6936           0      1954.577148   -403.420013  -19375.00000    129.507614
    6937           0      1954.577148   -403.420013  -19625.00000    128.860916
    6938           0      1954.577148   -403.420013  -19875.00000    128.142410
    6939           0      1954.577148   -403.420013  -20125.00000    127.351517
    6940           0      1954.577148   -403.420013  -20375.00000    126.480072
    6941           0      1954.577148   -403.420013  -20625.00000    125.513000
    6942           0      1954.577148   -403.420013  -20875.00000    124.423134
    6943           0      1954.577148   -403.420013  -21125.00000    123.179787
    6944           0      1954.577148   -403.420013  -21375.00000    121.735733
    6945           0      1954.577148   -403.420013  -21625.00000    120.044022
    6946           0      1954.577148   -403.420013  -21875.00000    118.037048
    6947           0      1954.577148   -403.420013  -22125.00000    115.652176
    6948           0      1954.577148   -403.420013  -22375.00000    112.803329
    6949           0      1954.577148   -403.420013  -22625.00000    109.416069
    6950           0      1954.577148   -403.420013  -22875.00000    105.392670
    6951           0      1954.577148   -403.420013  -23125.00000    100.657280
    6952           0      1954.577148   -403.420013  -23375.00000     95.117508
    6953           0      1954.577148   -403.420013  -23625.00000     88.721992
    6954           0      1954.577148   -403.419983  -23875.00000     81.431557
    6955           0      1954.577148   -403.419983  -24125.00000     73.305115
    6956           0      1954.577148   -403.419983  -24375.00000     64.528046
    6957           0      1954.577148   -403.419983  -24625.00000     55.661461
    6958           0      1954.577148   -403.419983  -24875.00000     47.847401
    6959           0      1954.577148   -403.419983  -25125.00000     42.783009
    6960           0      1954.577148   -403.419983  -25375.00000     43.993622
    6961           0      1954.577148   -403.419983  -25625.00000     47.313526
    6962           0      1954.577148   -403.420013  -25875.00000     47.472897
    6963           0      1979.795044   -273.648010  -13625.00000     89.060646
    6964           0      1979.795044   -273.648010  -13875.00000     95.790184
    6965           0      1979.795044   -273.648010  -14125.00000     93.935387
    6966           0      1979.795044   -273.648010  -14375.00000     94.450584
    6967           0      1979.795044   -273.648010  -14625.00000     95.690849
    6968           0      1979.795044   -273.648010  -14875.00000     98.204979
    6969           0      1979.795044   -273.648010  -15125.00000    101.297173
    6970           0      1979.795044   -273.648010  -15375.00000    104.534050
    6971           0      1979.795044   -273.648010  -15625.00000    107.483124
    6972           0      1979.795044   -273.648010  -15875.00000    109.902855
    6973           0      1979.795044   -273.648010  -16125.00000    111.656578
    6974           0      1979.795044   -273.648010  -16375.00000    112.706154
    6975           0      1979.795044   -273.648010  -16625.00000    113.088844
    6976           0      1979.795044   -273.648010  -16875.00000    112.859360
    6977           0      1979.795044   -273.648010  -17125.00000    112.122665
    6978           0      1979.795044   -273.648010  -17375.00000    110.958664
    6979           0      1979.795044   -273.648010  -17625.00000    109.483353
    6980           0      1979.795044   -273.648010  -17875.00000    107.772163
    6981           0      1979.795044   -273.648010  -18125.00000    105.928009
    6982           0      1979.795044   -273.648010  -18375.00000    104.011681
    6983           0      1979.795044   -273.648010  -18625.00000    102.104759
    6984           0      1979.795044   -273.648010  -18875.00000    100.251320
    6985           0      1979.795044   -273.648010  -19125.00000     98.510185
    6986           0      1979.795044   -273.648010  -19375.00000     96.909142
    6987           0      1979.795044   -273.648010  -19625.00000     95.484657
    6988           0      1979.795044   -273.648010  -19875.00000     94.248528
    6989           0      1979.795044   -273.648010  -20125.00000     93.214958
    6990           0      1979.795044   -273.648010  -20375.00000     92.378555
    6991           0      1979.795044   -273.648010  -20625.00000     91.730133
    6992           0      1979.795044   -273.648010  -20875.00000     91.244133
    6993           0      1979.795044   -273.648010  -21125.00000     90.885941
    6994           0      1979.795044   -273.648010  -21375.00000     90.605736
    6995           0      1979.795044   -273.648010  -21625.00000     90.341530
    6996           0      1979.795044   -273.648010  -21875.00000     90.014977
    6997           0      1979.795044   -273.648010  -22125.00000     89.536697
    6998           0      1979.795044   -273.648010  -22375.00000     88.796822
    6999           0      1979.795044   -273.648010  -22625.00000     87.682968
    7000           0      1979.795044   -273.648010  -22875.00000     86.055176
    7001           0      1979.795044   -273.648010  -23125.00000     83.792152
    7002           0      1979.795044   -273.648010  -23375.00000     80.737389
    7003           0      1979.795044   -273.648010  -23625.00000     76.794037
    7004           0      1979.795044   -273.648010  -23875.00000     71.833496
    7005           0      1979.795044   -273.648010  -24125.00000     65.850113
    7006           0      1979.795044   -273.648010  -24375.00000     58.871387
    7007           0      1979.795044   -273.648010  -24625.00000     51.092678
    7008           0      1979.795044   -273.648010  -24875.00000     43.073452
    7009           0      1979.795044   -273.648010  -25125.00000     35.587833
    7010           0      1979.795044   -273.648010  -25375.00000     30.531679
    7011           0      1979.795044   -273.648010  -25625.00000     28.538822
    7012           0      1979.795044   -273.648010  -25875.00000     27.137039
    7013           0      1994.987305   -100.000000  -13625.00000    123.493927
    7014           0      1994.987305   -100.000000  -13875.00000    125.906181
    7015           0      1994.987305   -100.000000  -14125.00000    124.526901
    7016           0      1994.987305   -100.000000  -14375.00000    121.219749
    7017           0      1994.987305   -100.000000  -14625.00000    120.035370
    7018           0      1994.987305   -100.000000  -14875.00000    119.676926
    7019           0      1994.987305   -100.000000  -15125.00000    120.577843
    7020           0      1994.987305   -100.000000  -15375.00000    121.725174
    7021           0      1994.987305   -100.000000  -15625.00000    123.040878
    7022           0      1994.987305   -100.000000  -15875.00000    124.017265
    7023           0      1994.987305   -100.000000  -16125.00000    124.601746
    7024           0      1994.987305   -100.000000  -16375.00000    124.649368
    7025           0      1994.987305   -100.000000  -16625.00000    124.193855
    7026           0      1994.987305   -100.000000  -16875.00000    123.250244
    7027           0      1994.987305   -100.000000  -17125.00000    121.894936
    7028           0      1994.987305   -100.000000  -17375.00000    120.195290
    7029           0      1994.987305   -100.000000  -17625.00000    118.235794
    7030           0      1994.987305   -100.000000  -17875.00000    116.090355
    7031           0      1994.987305   -100.000000  -18125.00000    113.834801
    7032           0      1994.987305   -100.000000  -18375.00000    111.532509
    7033           0      1994.987305   -100.000000  -18625.00000    109.244171
    7034           0      1994.987305   -100.000000  -18875.00000    107.017426
    7035           0      1994.987305   -100.000000  -19125.00000    104.896065
    7036           0      1994.987305   -100.000000  -19375.00000    102.911118
    7037           0      1994.987305   -100.000000  -19625.00000    101.089149
    7038           0      1994.987305   -100.000000  -19875.00000     99.444542
    7039           0      1994.987305   -100.000000  -20125.00000     97.986008
    7040           0      1994.987305   -100.000000  -20375.00000     96.710335
    7041           0      1994.987305   -100.000000  -20625.00000     95.606598
    7042           0      1994.987305   -100.000000  -20875.00000     94.651772
    7043           0      1994.987305   -100.000000  -21125.00000     93.812508
    7044           0      1994.987305   -100.000000  -21375.00000     93.042725
    7045           0      1994.987305   -100.000000  -21625.00000     92.283791
    7046           0      1994.987305   -100.000000  -21875.00000     91.463448
    7047           0      1994.987305   -100.000000  -22125.00000     90.496361
    7048           0      1994.987305   -100.000000  -22375.00000     89.282448
    7049           0      1994.987305   -100.000000  -22625.00000     87.712357
    7050           0      1994.987305   -100.000000  -22875.00000     85.660881
    7051           0      1994.987305   -100.000000  -23125.00000     83.005714
    7052           0      1994.987305   -100.000000  -23375.00000     79.610634
    7053           0      1994.987305   -100.000000  -23625.00000     75.368500
    7054           0      1994.987305   -100.000000  -23875.00000     70.177238
    7055           0      1994.987305   -100.000000  -24125.00000     64.005127
    7056           0      1994.987305   -100.000000  -24375.00000     56.926270
    7057           0      1994.987305   -100.000000  -24625.00000     49.103615
    7058           0      1994.987305   -100.000000  -24875.00000     41.251923
    7059           0      1994.987305   -100.000000  -25125.00000     34.050385
    7060           0      1994.987305   -100.000000  -25375.00000     29.797405
    7061           0      1994.987305   -100.000000  -25625.00000     27.460028
    7062           0      1994.987305   -100.000000  -25875.00000     28.121733
    7063           0      1994.936035     57.882732   -124.999992     92.104767
    7064           0      1994.936035     57.882732   -375.000000     91.534317
    7065           0      1994.936035     57.882732   -625.000000     84.725754
    7066           0      1994.936035     57.882732   -875.000000     74.834953
    7067           0      1994.936035     57.882732  -1125.000000     71.398537
    7068           0      1994.936035     57.882732  -1375.000000     70.598480
    7069           0      1994.936035     57.882732  -1625.000000     73.432968
    7070           0      1994.936035     57.882732  -1875.000000     78.149345
    7071           0      1994.936035     57.882732  -2125.000000     83.971947
    7072           0      1994.936035     57.882736  -2375.000000     89.997940
    7073           0      1994.936035     57.882736  -2625.000000     95.893044
    7074           0      1994.936035     57.882736  -2875.000000    101.346176
    7075           0      1994.936035     57.882736  -3125.000000    106.283684
    7076           0      1994.936035     57.882736  -3375.000000    110.640213
    7077           0      1994.936035     57.882736  -3625.000000    114.437614
    7078           0      1994.936035     57.882736  -3875.000000    117.701309
    7079           0      1994.936035     57.882736  -4125.000000    120.483803
    7080           0      1994.936035     57.882736  -4375.000000    122.839684
    7081           0      1994.936035     57.882736  -4625.000000    124.824997
    7082           0      1994.936035     57.882736  -4875.000000    126.497246
    7083           0      1994.936035     57.882736  -5125.000000    127.905167
    7084           0      1994.936035     57.882736  -5375.000000    129.098022
    7085           0      1994.936035     57.882736  -5625.000000    130.113739
    7086           0      1994.936035     57.882736  -5875.000000    130.989212
    7087           0      1994.936035     57.882736  -6125.000000    131.750458
    7088           0      1994.936035     57.882736  -6375.000000    132.420990
    7089           0      1994.936035     57.882736  -6625.000000    133.015442
    7090           0      1994.936035     57.882740  -6875.000000    133.544525
    7091           0      1994.936035     57.882744  -7124.999512    134.012085
    7092           0      1994.936035     57.882744  -7375.000000    134.416321
    7093           0      1994.936035     57.882744  -7625.000000    134.750946
    7094           0      1994.936035     57.882744  -7875.000000    135.003204
    7095           0      1994.936035     57.882744  -8125.000000    135.157593
    7096           0      1994.936035     57.882744  -8375.000000    135.191498
    7097           0      1994.936035     57.882744  -8625.000000    135.082260
    7098           0      1994.936035     57.882744  -8875.000000    134.801575
    7099           0      1994.936035     57.882744  -9125.000000    134.323441
    7100           0      1994.936035     57.882744  -9375.000000    133.620895
    7101           0      1994.936035     57.882744  -9625.000000    132.673920
    7102           0      1994.936035     57.882744  -9875.000000    131.472839
    7103           0      1994.936035     57.882744  -10125.00000    130.020355
    7104           0      1994.936035     57.882744  -10375.00000    128.353302
    7105           0      1994.936035     57.882744  -10625.00000    126.526093
    7106           0      1994.936035     57.882744  -10875.00000    124.673721
    7107           0      1994.936035     57.882744  -11125.00000    122.940712
    7108           0      1994.936035     57.882748  -11375.00000    121.643303
    7109           0      1994.936035     57.882748  -11625.00000    121.041100
    7110           0      1994.936035     57.882748  -11875.00000    121.730049
    7111           0      1994.936035     57.882748  -12125.00000    123.910652
    7112           0      1994.936035     57.882748  -12374.99902    128.800354
    7113           0      1994.936035     57.882748  -12625.00000    134.214920
    7114           0      1994.936035     57.882748  -12875.00000    145.767166
    7115           0      1994.936035     57.882748  -13125.00000    153.053391
    7116           0      1994.936035     57.882740  -13375.00000    144.431915
    7117           0      1984.807739    173.648193   -124.999992    105.372131
    7118           0      1984.807739    173.648193   -375.000000    103.943214
    7119           0      1984.807739    173.648193   -625.000000     94.367058
    7120           0      1984.807739    173.648193   -875.000000     83.644020
    7121           0      1984.807739    173.648193  -1125.000000     75.605415
    7122           0      1984.807739    173.648193  -1375.000000     69.984352
    7123           0      1984.807739    173.648193  -1625.000000     66.367920
    7124           0      1984.807739    173.648193  -1875.000000     65.953003
    7125           0      1984.807739    173.648193  -2125.000000     67.454796
    7126           0      1984.807739    173.648193  -2375.000000     70.841316
    7127           0      1984.807739    173.648178  -2625.000000     75.147667
    7128           0      1984.807739    173.648178  -2875.000000     80.042122
    7129           0      1984.807739    173.648178  -3125.000000     85.055824
    7130           0      1984.807739    173.648178  -3375.000000     89.989365
    7131           0      1984.807739    173.648178  -3625.000000     94.671600
    7132           0      1984.807739    173.648178  -3875.000000     99.020172
    7133           0      1984.807739    173.648178  -4125.000000    102.994751
    7134           0      1984.807739    173.648178  -4375.000000    106.573402
    7135           0      1984.807739    173.648178  -4625.000000    109.766487
    7136           0      1984.807739    173.648178  -4875.000000    112.578453
    7137           0      1984.807739    173.648178  -5125.000000    115.036057
    7138           0      1984.807739    173.648163  -5375.000000    117.152710
    7139           0      1984.807739    173.648163  -5625.000000    118.957069
    7140           0      1984.807739    173.648163  -5875.000000    120.463234
    7141           0      1984.807739    173.648163  -6125.000000    121.695816
    7142           0      1984.807739    173.648163  -6375.000000    122.665710
    7143           0      1984.807739    173.648163  -6625.000000    123.391754
    7144           0      1984.807739    173.648163  -6875.000000    123.880112
    7145           0      1984.807739    173.648163  -7124.999512    124.144112
    7146           0      1984.807739    173.648163  -7375.000000    124.185265
    7147           0      1984.807739    173.648163  -7625.000000    124.013374
    7148           0      1984.807739    173.648163  -7875.000000    123.626579
    7149           0      1984.807739    173.648163  -8125.000000    123.035309
    7150           0      1984.807739    173.648148  -8375.000000    122.237053
    7151           0      1984.807739    173.648148  -8625.000000    121.250374
    7152           0      1984.807739    173.648148  -8875.000000    120.077209
    7153           0      1984.807739    173.648148  -9125.000000    118.757835
    7154           0      1984.807739    173.648148  -9375.000000    117.306488
    7155           0      1984.807739    173.648148  -9625.000000    115.809174
    7156           0      1984.807739    173.648132  -9875.000000    114.301163
    7157           0      1984.807739    173.648132  -10125.00000    112.954475
    7158           0      1984.807739    173.648132  -10375.00000    111.824135
    7159           0      1984.807739    173.648132  -10625.00000    111.226944
    7160           0      1984.807739    173.648132  -10875.00000    111.187904
    7161           0      1984.807739    173.648132  -11125.00000    112.239143
    7162           0      1984.807739    173.648132  -11375.00000    114.194305
    7163           0      1984.807739    173.648132  -11625.00000    117.888046
    7164           0      1984.807739    173.648132  -11875.00000    122.526222
    7165           0      1984.807739    173.648132  -12125.00000    129.424622
    7166           0      1984.807739    173.648132  -12374.99902    136.821182
    7167           0      1984.807739    173.648132  -12625.00000    145.975616
    7168           0      1984.807739    173.648117  -12875.00000    156.389816
    7169           0      1984.807739    173.648117  -13125.00000    166.313660
    7170           0      1984.807739    173.648163  -13375.00000    165.021622
    7171           0      1974.679443    289.413666   -124.999992    128.271317
    7172           0      1974.679443    289.413666   -375.000000    111.228394
    7173           0      1974.679443    289.413666   -625.000000    105.464447
    7174           0      1974.679443    289.413635   -875.000000     91.521034
    7175           0      1974.679443    289.413635  -1125.000000     81.271828
    7176           0      1974.679443    289.413635  -1375.000000     70.531067
    7177           0      1974.679443    289.413635  -1625.000000     62.274490
    7178           0      1974.679443    289.413635  -1875.000000     55.579716
    7179           0      1974.679443    289.413635  -2125.000000     52.217136
    7180           0      1974.679443    289.413635  -2375.000000     51.559998
    7181           0      1974.679443    289.413635  -2625.000000     53.721478
    7182           0      1974.679443    289.413635  -2875.000000     57.682423
    7183           0      1974.679443    289.413635  -3125.000000     62.805233
    7184           0      1974.679443    289.413635  -3375.000000     68.440758
    7185           0      1974.679443    289.413635  -3625.000000     74.190681
    7186           0      1974.679443    289.413635  -3875.000000     79.809647
    7187           0      1974.679443    289.413635  -4125.000000     85.121758
    7188           0      1974.679443    289.413635  -4375.000000     90.055260
    7189           0      1974.679443    289.413635  -4625.000000     94.539391
    7190           0      1974.679443    289.413635  -4875.000000     98.565086
    7191           0      1974.679443    289.413635  -5125.000000    102.108528
    7192           0      1974.679443    289.413635  -5375.000000    105.181839
    7193           0      1974.679443    289.413635  -5625.000000    107.781143
    7194           0      1974.679443    289.413635  -5875.000000    109.924469
    7195           0      1974.679443    289.413635  -6125.000000    111.616310
    7196           0      1974.679443    289.413635  -6375.000000    112.874687
    7197           0      1974.679443    289.413635  -6625.000000    113.707245
    7198           0      1974.679443    289.413605  -6875.000000    114.130615
    7199           0      1974.679443    289.413605  -7124.999512    114.154099
    7200           0      1974.679443    289.413605  -7375.000000    113.795639
    7201           0      1974.679443    289.413605  -7625.000000    113.067558
    7202           0      1974.679443    289.413605  -7875.000000    111.994095
    7203           0      1974.679443    289.413605  -8125.000000    110.595726
    7204           0      1974.679443    289.413605  -8375.000000    108.913116
    7205           0      1974.679443    289.413605  -8625.000000    106.983841
    7206           0      1974.679443    289.413605  -8875.000000    104.882652
    7207           0      1974.679443    289.413605  -9125.000000    102.677330
    7208           0      1974.679443    289.413605  -9375.000000    100.508163
    7209           0      1974.679443    289.413574  -9625.000000     98.485176
    7210           0      1974.679443    289.413574  -9875.000000     96.857269
    7211           0      1974.679443    289.413574  -10125.00000     95.766281
    7212           0      1974.679443    289.413574  -10375.00000     95.612450
    7213           0      1974.679443    289.413574  -10625.00000     96.472237
    7214           0      1974.679443    289.413574  -10875.00000     98.905548
    7215           0      1974.679443    289.413574  -11125.00000    102.671677
    7216           0      1974.679443    289.413574  -11375.00000    108.499947
    7217           0      1974.679443    289.413574  -11625.00000    115.467041
    7218           0      1974.679443    289.413574  -11875.00000    124.649834
    7219           0      1974.679443    289.413574  -12125.00000    134.119537
    7220           0      1974.679443    289.413574  -12374.99902    145.578766
    7221           0      1974.679443    289.413574  -12625.00000    155.901779
    7222           0      1974.679443    289.413574  -12875.00000    170.194458
    7223           0      1974.679443    289.413574  -13125.00000    173.172318
    7224           0      1974.679443    289.413605  -13375.00000    195.221832
    7225           0      1954.577026    403.420410   -124.999985    124.790543
    7226           0      1954.577026    403.420410   -375.000000    112.061432
    7227           0      1954.577026    403.420410   -624.999939    105.130470
    7228           0      1954.577026    403.420410   -875.000000     91.066833
    7229           0      1954.577026    403.420410  -1125.000000     80.971436
    7230           0      1954.577026    403.420410  -1375.000122     69.279541
    7231           0      1954.577026    403.420410  -1625.000000     59.541756
    7232           0      1954.577026    403.420410  -1874.999756     50.237450
    7233           0      1954.577026    403.420410  -2125.000000     43.384697
    7234           0      1954.577026    403.420410  -2375.000244     38.762455
    7235           0      1954.577026    403.420410  -2624.999756     37.416153
    7236           0      1954.577026    403.420410  -2874.999512     38.869713
    7237           0      1954.577026    403.420410  -3124.999756     42.512390
    7238           0      1954.577026    403.420410  -3375.000244     47.407921
    7239           0      1954.577026    403.420410  -3625.000244     52.868008
    7240           0      1954.577026    403.420410  -3875.000244     58.471210
    7241           0      1954.577026    403.420410  -4125.000000     63.922134
    7242           0      1954.577026    403.420410  -4375.000000     69.086067
    7243           0      1954.577026    403.420410  -4625.000000     73.846848
    7244           0      1954.577026    403.420410  -4875.000000     78.165802
    7245           0      1954.577026    403.420410  -5124.999512     81.998734
    7246           0      1954.577026    403.420410  -5374.999512     85.338898
    7247           0      1954.577026    403.420410  -5625.000000     88.174988
    7248           0      1954.577026    403.420410  -5875.000488     90.510452
    7249           0      1954.577026    403.420410  -6125.000977     92.350166
    7250           0      1954.577026    403.420410  -6375.000488     93.701546
    7251           0      1954.577026    403.420410  -6625.000000     94.580147
    7252           0      1954.577026    403.420410  -6875.000488     94.996040
    7253           0      1954.577026    403.420410  -7124.999512     94.974724
    7254           0      1954.577026    403.420410  -7374.999023     94.531479
    7255           0      1954.577026    403.420410  -7625.000000     93.705673
    7256           0      1954.577026    403.420410  -7875.000000     92.524086
    7257           0      1954.577026    403.420410  -8124.999023     91.049927
    7258           0      1954.577026    403.420410  -8374.999023     89.331856
    7259           0      1954.577026    403.420410  -8625.000000     87.473984
    7260           0      1954.577026    403.420410  -8875.000977     85.564003
    7261           0      1954.577026    403.420410  -9125.000000     83.768997
    7262           0      1954.577026    403.420410  -9374.999023     82.235367
    7263           0      1954.577026    403.420410  -9625.000000     81.205147
    7264           0      1954.577026    403.420410  -9875.000000     80.886765
    7265           0      1954.577026    403.420410  -10125.00000     81.555435
    7266           0      1954.577026    403.420410  -10375.00000     83.433960
    7267           0      1954.577026    403.420410  -10624.99902     86.687370
    7268           0      1954.577026    403.420410  -10875.00097     91.493484
    7269           0      1954.577026    403.420410  -11125.00097     97.718414
    7270           0      1954.577026    403.420410  -11375.00000    105.572502
    7271           0      1954.577026    403.420410  -11625.00000    114.446793
    7272           0      1954.577026    403.420410  -11875.00000    124.867615
    7273           0      1954.577026    403.420410  -12125.00000    135.443710
    7274           0      1954.577026    403.420410  -12374.99902    147.642059
    7275           0      1954.577026    403.420410  -12625.00000    158.053619
    7276           0      1954.577026    403.420410  -12874.99902    172.661392
    7277           0      1954.577026    403.420410  -13124.99804    180.979828
    7278           0      1954.577026    403.420410  -13374.99902    187.217560
    7279           0      1924.500244    515.668335   -124.999985    103.093399
    7280           0      1924.500244    515.668335   -374.999969    103.297043
    7281           0      1924.500244    515.668335   -624.999939     92.532104
    7282           0      1924.500244    515.668335   -874.999878     82.587944
    7283           0      1924.500244    515.668335  -1124.999878     72.999626
    7284           0      1924.500244    515.668335  -1375.000244     64.100761
    7285           0      1924.500244    515.668335  -1625.000000     54.693340
    7286           0      1924.500244    515.668335  -1874.999512     46.479172
    7287           0      1924.500244    515.668335  -2125.000244     38.449036
    7288           0      1924.500244    515.668335  -2375.000244     31.898415
    7289           0      1924.500244    515.668335  -2624.999756     26.668869
    7290           0      1924.500244    515.668335  -2874.999512     23.874960
    7291           0      1924.500244    515.668335  -3124.999512     23.611584
    7292           0      1924.500244    515.668335  -3375.000488     25.698122
    7293           0      1924.500244    515.668335  -3625.000488     29.234688
    7294           0      1924.500244    515.668335  -3875.000244     33.462936
    7295           0      1924.500244    515.668335  -4125.000488     37.913300
    7296           0      1924.500244    515.668335  -4375.000488     42.274319
    7297           0      1924.500244    515.668335  -4625.000488     46.413559
    7298           0      1924.500244    515.668335  -4874.999512     50.214287
    7299           0      1924.500244    515.668335  -5124.999512     53.642059
    7300           0      1924.500244    515.668335  -5374.999023     56.651199
    7301           0      1924.500244    515.668335  -5625.000000     59.236618
    7302           0      1924.500244    515.668335  -5875.000977     61.385967
    7303           0      1924.500244    515.668335  -6125.000977     63.105785
    7304           0      1924.500244    515.668335  -6375.000000     64.404892
    7305           0      1924.500244    515.668335  -6625.000000     65.297256
    7306           0      1924.500244    515.668335  -6875.000977     65.810875
    7307           0      1924.500244    515.668396  -7124.999023     65.969833
    7308           0      1924.500244    515.668396  -7374.998535     65.824402
    7309           0      1924.500244    515.668396  -7625.000000     65.415947
    7310           0      1924.500244    515.668396  -7875.000000     64.825607
    7311           0      1924.500244    515.668396  -8124.999023     64.123199
    7312           0      1924.500244    515.668396  -8374.999023     63.431934
    7313           0      1924.500244    515.668396  -8625.000000     62.862659
    7314           0      1924.500244    515.668396  -8875.000977     62.583309
    7315           0      1924.500244    515.668396  -9125.000000     62.748932
    7316           0      1924.500244    515.668396  -9374.998047     63.540588
    7317           0      1924.500244    515.668396  -9625.000000     65.131134
    7318           0      1924.500244    515.668396  -9875.000000     67.627853
    7319           0      1924.500244    515.668396  -10125.00000     71.184486
    7320           0      1924.500244    515.668396  -10375.00000     75.726433
    7321           0      1924.500244    515.668396  -10624.99804     81.422440
    7322           0      1924.500244    515.668396  -10875.00195     87.935677
    7323           0      1924.500244    515.668396  -11125.00195     95.597191
    7324           0      1924.500244    515.668396  -11375.00000    103.701263
    7325           0      1924.500244    515.668396  -11625.00000    112.988579
    7326           0      1924.500244    515.668396  -11875.00000    122.136307
    7327           0      1924.500244    515.668396  -12125.00000    132.654160
    7328           0      1924.500244    515.668396  -12375.00000    142.384186
    7329           0      1924.500244    515.668396  -12625.00000    153.152267
    7330           0      1924.500244    515.668396  -12874.99804    164.024384
    7331           0      1924.500244    515.668396  -13124.99609    177.132523
    7332           0      1924.500244    515.668396  -13374.99804    173.249313
    7333           0      1894.423584    627.916321   -124.999992     93.845543
    7334           0      1894.423584    627.916321   -375.000000     86.511818
    7335           0      1894.423584    627.916321   -625.000000     82.303703
    7336           0      1894.423584    627.916321   -874.999939     73.197884
    7337           0      1894.423584    627.916321  -1125.000000     66.013939
    7338           0      1894.423584    627.916321  -1375.000122     58.402828
    7339           0      1894.423584    627.916321  -1625.000000     51.027622
    7340           0      1894.423584    627.916321  -1874.999756     43.528023
    7341           0      1894.423584    627.916321  -2125.000000     36.372738
    7342           0      1894.423584    627.916321  -2375.000000     29.197937
    7343           0      1894.423584    627.916321  -2625.000000     22.445337
    7344           0      1894.423584    627.916321  -2874.999756     15.849909
    7345           0      1894.423584    627.916321  -3125.000000      9.811562
    7346           0      1894.423584    627.916321  -3375.000244      4.624865
    7347           0      1894.423584    627.916321  -3625.000000      4.169262
    7348           0      1894.423584    627.916321  -3875.000000      8.454868
    7349           0      1894.423584    627.916321  -4125.000000     13.050137
    7350           0      1894.423584    627.916321  -4375.000000     17.431591
    7351           0      1894.423584    627.916321  -4625.000000     21.412262
    7352           0      1894.423584    627.916321  -4875.000000     25.024029
    7353           0      1894.423584    627.916321  -5125.000000     28.199934
    7354           0      1894.423584    627.916321  -5375.000000     30.977842
    7355           0      1894.423584    627.916321  -5625.000000     33.326839
    7356           0      1894.423584    627.916321  -5875.000488     35.281189
    7357           0      1894.423584    627.916321  -6125.000488     36.836143
    7358           0      1894.423584    627.916321  -6375.000000     38.029148
    7359           0      1894.423584    627.916321  -6625.000000     38.881916
    7360           0      1894.423584    627.916321  -6875.000000     39.444111
    7361           0      1894.423584    627.916382  -7124.999512     39.770031
    7362           0      1894.423584    627.916382  -7374.999023     39.934467
    7363           0      1894.423584    627.916382  -7625.000000     40.033054
    7364           0      1894.423584    627.916382  -7875.000000     40.179634
    7365           0      1894.423584    627.916382  -8125.000000     40.511978
    7366           0      1894.423584    627.916382  -8375.000000     41.184322
    7367           0      1894.423584    627.916382  -8625.000000     42.343353
    7368           0      1894.423584    627.916382  -8875.000000     44.149933
    7369           0      1894.423584    627.916382  -9125.000000     46.681187
    7370           0      1894.423584    627.916382  -9375.000000     50.058666
    7371           0      1894.423584    627.916382  -9625.000000     54.221050
    7372           0      1894.423584    627.916382  -9875.000000     59.266304
    7373           0      1894.423584    627.916382  -10124.99902     64.981956
    7374           0      1894.423584    627.916382  -10374.99902     71.519867
    7375           0      1894.423584    627.916382  -10625.00000     78.507591
    7376           0      1894.423584    627.916382  -10875.00000     86.241257
    7377           0      1894.423584    627.916382  -11125.00000     94.136711
    7378           0      1894.423584    627.916382  -11375.00000    102.738533
    7379           0      1894.423584    627.916382  -11625.00000    111.156845
    7380           0      1894.423584    627.916382  -11875.00000    120.317909
    7381           0      1894.423584    627.916382  -12125.00000    128.990341
    7382           0      1894.423584    627.916382  -12374.99902    138.459763
    7383           0      1894.423584    627.916382  -12625.00000    147.040375
    7384           0      1894.423584    627.916382  -12874.99902    159.122498
    7385           0      1894.423584    627.916382  -13124.99902    161.115524
    7386           0      1894.423584    627.916321  -13374.99902    176.533127
    7387           0      1854.829346    736.700317   -124.999985     78.336945
    7388           0      1854.829346    736.700317   -375.000000     70.478645
    7389           0      1854.829346    736.700317   -624.999939     68.743973
    7390           0      1854.829346    736.700317   -875.000000     61.667896
    7391           0      1854.829346    736.700317  -1125.000000     56.711273
    7392           0      1854.829346    736.700317  -1375.000122     50.858601
    7393           0      1854.829346    736.700317  -1625.000000     45.668362
    7394           0      1854.829346    736.700317  -1874.999756     40.143906
    7395           0      1854.829346    736.700317  -2125.000000     35.093922
    7396           0      1854.829346    736.700317  -2375.000244     30.127842
    7397           0      1854.829346    736.700317  -2624.999756     25.672918
    7398           0      1854.829346    736.700317  -2874.999512     21.687105
    7399           0      1854.829346    736.700317  -3124.999756     18.465948
    7400           0      1854.829346    736.700317  -3375.000244     16.160635
    7401           0      1854.829346    736.700317  -3625.000244     14.989229
    7402           0      1854.829346    736.700317  -3875.000244     14.930783
    7403           0      1854.829346    736.700317  -4125.000000     15.784802
    7404           0      1854.829346    736.700317  -4375.000000     17.192226
    7405           0      1854.829346    736.700317  -4625.000000     18.879070
    7406           0      1854.829346    736.700317  -4875.000000     20.616913
    7407           0      1854.829346    736.700317  -5124.999512     22.297758
    7408           0      1854.829346    736.700317  -5374.999512     23.829180
    7409           0      1854.829346    736.700317  -5625.000000     25.187315
    7410           0      1854.829346    736.700317  -5875.000488     26.344078
    7411           0      1854.829346    736.700317  -6125.000977     27.314384
    7412           0      1854.829346    736.700317  -6375.000488     28.109556
    7413           0      1854.829346    736.700317  -6625.000000     28.773342
    7414           0      1854.829346    736.700317  -6875.000488     29.352074
    7415           0      1854.829346    736.700317  -7124.999512     29.921551
    7416           0      1854.829346    736.700317  -7374.999023     30.560823
    7417           0      1854.829346    736.700317  -7625.000000     31.376514
    7418           0      1854.829346    736.700317  -7875.000000     32.465801
    7419           0      1854.829346    736.700317  -8124.999023     33.945728
    7420           0      1854.829346    736.700317  -8374.999023     35.894264
    7421           0      1854.829346    736.700317  -8625.000000     38.401009
    7422           0      1854.829346    736.700317  -8875.000977     41.487011
    7423           0      1854.829346    736.700317  -9125.000000     45.195129
    7424           0      1854.829346    736.700317  -9374.999023     49.488689
    7425           0      1854.829346    736.700317  -9625.000000     54.375271
    7426           0      1854.829346    736.700317  -9875.000000     59.786449
    7427           0      1854.829346    736.700317  -10125.00000     65.705490
    7428           0      1854.829346    736.700317  -10375.00000     72.065872
    7429           0      1854.829346    736.700317  -10624.99902     78.806084
    7430           0      1854.829346    736.700317  -10875.00097     85.911064
    7431           0      1854.829346    736.700317  -11125.00097     93.209648
    7432           0      1854.829346    736.700317  -11375.00000    100.837715
    7433           0      1854.829346    736.700317  -11625.00000    108.381783
    7434           0      1854.829346    736.700317  -11875.00000    116.345535
    7435           0      1854.829346    736.700317  -12125.00000    123.849640
    7436           0      1854.829346    736.700317  -12374.99902    132.138657
    7437           0      1854.829346    736.700317  -12625.00000    139.241333
    7438           0      1854.829346    736.700317  -12874.99902    149.328949
    7439           0      1854.829346    736.700317  -13124.99804    153.501266
    7440           0      1854.829346    736.700317  -13374.99902    157.767303
    7441           0      1805.717896    842.020203   -124.999985     53.927307
    7442           0      1805.717896    842.020203   -374.999969     56.101551
    7443           0      1805.717896    842.020203   -624.999939     51.593266
    7444           0      1805.717896    842.020203   -874.999878     48.026474
    7445           0      1805.717896    842.020203  -1124.999878     44.421890
    7446           0      1805.717896    842.020203  -1375.000244     40.968517
    7447           0      1805.717896    842.020203  -1625.000000     37.423218
    7448           0      1805.717896    842.020203  -1874.999512     34.188866
    7449           0      1805.717896    842.020203  -2125.000244     31.052311
    7450           0      1805.717896    842.020203  -2375.000244     28.345995
    7451           0      1805.717896    842.020203  -2624.999756     25.990654
    7452           0      1805.717896    842.020142  -2874.999512     24.209755
    7453           0      1805.717896    842.020142  -3124.999512     22.955006
    7454           0      1805.717896    842.020142  -3375.000488     22.303274
    7455           0      1805.717896    842.020142  -3625.000488     22.147259
    7456           0      1805.717896    842.020142  -3875.000244     22.429087
    7457           0      1805.717896    842.020142  -4125.000488     23.003601
    7458           0      1805.717896    842.020142  -4375.000488     23.780489
    7459           0      1805.717896    842.020142  -4625.000488     24.648033
    7460           0      1805.717896    842.020142  -4874.999512     25.548740
    7461           0      1805.717896    842.020142  -5124.999512     26.421654
    7462           0      1805.717896    842.020142  -5374.999023     27.248167
    7463           0      1805.717896    842.020142  -5625.000000     28.005537
    7464           0      1805.717896    842.020142  -5875.000977     28.705101
    7465           0      1805.717896    842.020142  -6125.000977     29.353064
    7466           0      1805.717896    842.020142  -6375.000000     29.984121
    7467           0      1805.717896    842.020142  -6625.000000     30.628311
    7468           0      1805.717896    842.020142  -6875.000977     31.340143
    7469           0      1805.717896    842.020142  -7124.999023     32.167690
    7470           0      1805.717896    842.020142  -7374.998535     33.179314
    7471           0      1805.717896    842.020142  -7625.000000     34.428074
    7472           0      1805.717896    842.020142  -7875.000000     35.982075
    7473           0      1805.717896    842.020142  -8124.999023     37.883144
    7474           0      1805.717896    842.020142  -8374.999023     40.180561
    7475           0      1805.717896    842.020142  -8625.000000     42.892193
    7476           0      1805.717896    842.020142  -8875.000977     46.037830
    7477           0      1805.717896    842.020142  -9125.000000     49.613377
    7478           0      1805.717896    842.020142  -9374.998047     53.607338
    7479           0      1805.717896    842.020142  -9625.000000     58.010445
    7480           0      1805.717896    842.020142  -9875.000000     62.773048
    7481           0      1805.717896    842.020142  -10125.00000     67.909241
    7482           0      1805.717896    842.020142  -10375.00000     73.309105
    7483           0      1805.717896    842.020142  -10624.99804     79.051605
    7484           0      1805.717896    842.020081  -10875.00195     84.918251
    7485           0      1805.717896    842.020081  -11125.00195     91.126564
    7486           0      1805.717896    842.020081  -11375.00000     97.256081
    7487           0      1805.717896    842.020081  -11625.00000    103.802734
    7488           0      1805.717896    842.020081  -11875.00000    109.974304
    7489           0      1805.717896    842.020081  -12125.00000    116.778084
    7490           0      1805.717896    842.020081  -12375.00000    122.915085
    7491           0      1805.717896    842.020081  -12625.00000    129.637680
    7492           0      1805.717896    842.020081  -12874.99804    136.037323
    7493           0      1805.717896    842.020081  -13124.99609    144.915344
    7494           0      1805.717896    842.020142  -13374.99804    138.646194
    7495           0      1756.606445    947.340088   -124.999992     34.850643
    7496           0      1756.606445    947.340088   -375.000000     37.306416
    7497           0      1756.606445    947.340088   -625.000000     35.762344
    7498           0      1756.606445    947.340088   -874.999939     34.247055
    7499           0      1756.606445    947.340088  -1125.000000     32.715553
    7500           0      1756.606445    947.340088  -1375.000122     31.691849
    7501           0      1756.606445    947.340088  -1625.000000     30.465454
    7502           0      1756.606445    947.340088  -1874.999756     29.740494
    7503           0      1756.606445    947.340088  -2125.000000     29.204580
    7504           0      1756.606445    947.340088  -2375.000000     29.109228
    7505           0      1756.606445    947.340088  -2625.000000     29.395237
    7506           0      1756.606445    947.340027  -2874.999756     30.074598
    7507           0      1756.606445    947.340027  -3125.000000     31.098457
    7508           0      1756.606445    947.340027  -3375.000244     32.376717
    7509           0      1756.606445    947.340027  -3625.000000     33.838249
    7510           0      1756.606445    947.340027  -3875.000000     35.385201
    7511           0      1756.606445    947.340027  -4125.000000     36.955387
    7512           0      1756.606445    947.340027  -4375.000000     38.481888
    7513           0      1756.606445    947.340027  -4625.000000     39.927101
    7514           0      1756.606445    947.340027  -4875.000000     41.256779
    7515           0      1756.606445    947.340027  -5125.000000     42.457668
    7516           0      1756.606445    947.340027  -5375.000000     43.519325
    7517           0      1756.606445    947.340027  -5625.000000     44.448376
    7518           0      1756.606445    947.340027  -5875.000488     45.251560
    7519           0      1756.606445    947.340027  -6125.000488     45.950977
    7520           0      1756.606445    947.340027  -6375.000000     46.566471
    7521           0      1756.606445    947.340027  -6625.000000     47.132893
    7522           0      1756.606445    947.340027  -6875.000000     47.682510
    7523           0      1756.606445    947.340027  -7124.999512     48.259499
    7524           0      1756.606445    947.340027  -7374.999023     48.905518
    7525           0      1756.606445    947.340027  -7625.000000     49.670006
    7526           0      1756.606445    947.340027  -7875.000000     50.602203
    7527           0      1756.606445    947.340027  -8125.000000     51.747013
    7528           0      1756.606445    947.340027  -8375.000000     53.154140
    7529           0      1756.606445    947.340027  -8625.000000     54.853157
    7530           0      1756.606445    947.340027  -8875.000000     56.886448
    7531           0      1756.606445    947.340027  -9125.000000     59.254875
    7532           0      1756.606445    947.340027  -9375.000000     61.994148
    7533           0      1756.606445    947.340027  -9625.000000     65.062370
    7534           0      1756.606445    947.340027  -9875.000000     68.498695
    7535           0      1756.606445    947.340027  -10124.99902     72.206688
    7536           0      1756.606445    947.340027  -10374.99902     76.252312
    7537           0      1756.606445    947.340027  -10625.00000     80.468300
    7538           0      1756.606445    947.339966  -10875.00000     84.983498
    7539           0      1756.606445    947.339966  -11125.00000     89.541481
    7540           0      1756.606445    947.339966  -11375.00000     94.376747
    7541           0      1756.606445    947.339966  -11625.00000     99.128113
    7542           0      1756.606445    947.339966  -11875.00000    104.146584
    7543           0      1756.606445    947.339966  -12125.00000    109.041550
    7544           0      1756.606445    947.339966  -12374.99902    114.049332
    7545           0      1756.606445    947.339966  -12625.00000    118.817619
    7546           0      1756.606445    947.339966  -12874.99902    125.350426
    7547           0      1756.606445    947.339966  -13124.99902    125.368210
    7548           0      1756.606445    947.340027  -13374.99902    132.795761
    7549           0      1698.723633   1047.595947   -124.999985     23.505852
    7550           0      1698.723633   1047.595947   -375.000000     22.934727
    7551           0      1698.723633   1047.595947   -624.999939     24.096640
    7552           0      1698.723633   1047.595947   -875.000000     23.944071
    7553           0      1698.723633   1047.595947  -1125.000000     24.014931
    7554           0      1698.723633   1047.595947  -1375.000122     24.400679
    7555           0      1698.723633   1047.595947  -1625.000000     24.760141
    7556           0      1698.723633   1047.595947  -1874.999756     25.496431
    7557           0      1698.723633   1047.595947  -2125.000000     26.392147
    7558           0      1698.723633   1047.595947  -2375.000244     27.663933
    7559           0      1698.723633   1047.595947  -2624.999756     29.151175
    7560           0      1698.723633   1047.595947  -2874.999512     30.943718
    7561           0      1698.723633   1047.595947  -3124.999756     32.896046
    7562           0      1698.723633   1047.595947  -3375.000244     35.015976
    7563           0      1698.723633   1047.595947  -3625.000244     37.184040
    7564           0      1698.723633   1047.595947  -3875.000244     39.377117
    7565           0      1698.723633   1047.595947  -4125.000000     41.511360
    7566           0      1698.723633   1047.595947  -4375.000000     43.563606
    7567           0      1698.723633   1047.595947  -4625.000000     45.483791
    7568           0      1698.723633   1047.595947  -4875.000000     47.260189
    7569           0      1698.723633   1047.595947  -5124.999512     48.869148
    7570           0      1698.723633   1047.595947  -5374.999512     50.312126
    7571           0      1698.723633   1047.595947  -5625.000000     51.585331
    7572           0      1698.723633   1047.595947  -5875.000488     52.701855
    7573           0      1698.723633   1047.595947  -6125.000977     53.672417
    7574           0      1698.723633   1047.595947  -6375.000488     54.519684
    7575           0      1698.723633   1047.595947  -6625.000000     55.266499
    7576           0      1698.723633   1047.595947  -6875.000488     55.944927
    7577           0      1698.723633   1047.595947  -7124.999512     56.584709
    7578           0      1698.723633   1047.595947  -7374.999023     57.225075
    7579           0      1698.723633   1047.595947  -7625.000000     57.907009
    7580           0      1698.723633   1047.595947  -7875.000000     58.668934
    7581           0      1698.723633   1047.595947  -8124.999023     59.557133
    7582           0      1698.723633   1047.595947  -8374.999023     60.607349
    7583           0      1698.723633   1047.595947  -8625.000000     61.864384
    7584           0      1698.723633   1047.595947  -8875.000977     63.351833
    7585           0      1698.723633   1047.595947  -9125.000000     65.106567
    7586           0      1698.723633   1047.595947  -9374.999023     67.130524
    7587           0      1698.723633   1047.595947  -9625.000000     69.446297
    7588           0      1698.723633   1047.595947  -9875.000000     72.029160
    7589           0      1698.723633   1047.595947  -10125.00000     74.883713
    7590           0      1698.723633   1047.595947  -10375.00000     77.965965
    7591           0      1698.723633   1047.595947  -10624.99902     81.256371
    7592           0      1698.723633   1047.595947  -10875.00097     84.720078
    7593           0      1698.723633   1047.595947  -11125.00097     88.297440
    7594           0      1698.723633   1047.595947  -11375.00000     92.019768
    7595           0      1698.723633   1047.595947  -11625.00000     95.735985
    7596           0      1698.723633   1047.595947  -11875.00000     99.635452
    7597           0      1698.723633   1047.595947  -12125.00000    103.383484
    7598           0      1698.723633   1047.595947  -12374.99902    107.378685
    7599           0      1698.723633   1047.595947  -12625.00000    110.890068
    7600           0      1698.723633   1047.595947  -12874.99902    115.843491
    7601           0      1698.723633   1047.595947  -13124.99804    117.030121
    7602           0      1698.723633   1047.595947  -13374.99902    117.506378
    7603           0      1632.069702   1142.787598   -124.999985     14.965090
    7604           0      1632.069702   1142.787598   -374.999969     17.008150
    7605           0      1632.069702   1142.787598   -624.999939     16.850822
    7606           0      1632.069702   1142.787598   -874.999878     17.605745
    7607           0      1632.069702   1142.787598  -1124.999878     18.284777
    7608           0      1632.069702   1142.787598  -1375.000244     18.897564
    7609           0      1632.069702   1142.787598  -1625.000000     19.892765
    7610           0      1632.069702   1142.787598  -1874.999512     20.898605
    7611           0      1632.069702   1142.787598  -2125.000244     22.229490
    7612           0      1632.069702   1142.787598  -2375.000244     23.695789
    7613           0      1632.069702   1142.787598  -2624.999756     25.414267
    7614           0      1632.069702   1142.787598  -2874.999512     27.279869
    7615           0      1632.069702   1142.787598  -3124.999512     29.315470
    7616           0      1632.069702   1142.787598  -3375.000488     31.443050
    7617           0      1632.069702   1142.787598  -3625.000488     33.647095
    7618           0      1632.069702   1142.787598  -3875.000244     35.865242
    7619           0      1632.069702   1142.787598  -4125.000488     38.072578
    7620           0      1632.069702   1142.787598  -4375.000488     40.222565
    7621           0      1632.069702   1142.787598  -4625.000488     42.295029
    7622           0      1632.069702   1142.787598  -4874.999512     44.259781
    7623           0      1632.069702   1142.787598  -5124.999512     46.106979
    7624           0      1632.069702   1142.787598  -5374.999023     47.822124
    7625           0      1632.069702   1142.787598  -5625.000000     49.406139
    7626           0      1632.069702   1142.787598  -5875.000977     50.858727
    7627           0      1632.069702   1142.787598  -6125.000977     52.190563
    7628           0      1632.069702   1142.787598  -6375.000000     53.412964
    7629           0      1632.069702   1142.787598  -6625.000000     54.548164
    7630           0      1632.069702   1142.787598  -6875.000977     55.614475
    7631           0      1632.069702   1142.787598  -7124.999023     56.637943
    7632           0      1632.069702   1142.787598  -7374.998535     57.652325
    7633           0      1632.069702   1142.787598  -7625.000000     58.683853
    7634           0      1632.069702   1142.787598  -7875.000000     59.767509
    7635           0      1632.069702   1142.787598  -8124.999023     60.932823
    7636           0      1632.069702   1142.787598  -8374.999023     62.212639
    7637           0      1632.069702   1142.787598  -8625.000000     63.631573
    7638           0      1632.069702   1142.787598  -8875.000977     65.213951
    7639           0      1632.069702   1142.787598  -9125.000000     66.975197
    7640           0      1632.069702   1142.787598  -9374.998047     68.924522
    7641           0      1632.069702   1142.787598  -9625.000000     71.067612
    7642           0      1632.069702   1142.787598  -9875.000000     73.388977
    7643           0      1632.069702   1142.787598  -10125.00000     75.895508
    7644           0      1632.069702   1142.787598  -10375.00000     78.536613
    7645           0      1632.069702   1142.787598  -10624.99804     81.341446
    7646           0      1632.069702   1142.787598  -10875.00195     84.207535
    7647           0      1632.069702   1142.787598  -11125.00195     87.228172
    7648           0      1632.069702   1142.787598  -11375.00000     90.209366
    7649           0      1632.069702   1142.787598  -11625.00000     93.377403
    7650           0      1632.069702   1142.787598  -11875.00000     96.367104
    7651           0      1632.069702   1142.787598  -12125.00000     99.627251
    7652           0      1632.069702   1142.787598  -12375.00000    102.588348
    7653           0      1632.069702   1142.787598  -12625.00000    105.716660
    7654           0      1632.069702   1142.787598  -12874.99804    108.579033
    7655           0      1632.069702   1142.787598  -13124.99609    113.813446
    7656           0      1632.069702   1142.787598  -13374.99804    106.559296
    7657           0      1565.415771   1237.979248   -124.999992     17.100025
    7658           0      1565.415771   1237.979248   -375.000000     16.675755
    7659           0      1565.415771   1237.979248   -625.000000     16.411034
    7660           0      1565.415771   1237.979248   -874.999939     15.874222
    7661           0      1565.415771   1237.979248  -1125.000000     16.210743
    7662           0      1565.415771   1237.979248  -1375.000122     16.652401
    7663           0      1565.415771   1237.979248  -1625.000000     17.638786
    7664           0      1565.415771   1237.979248  -1874.999756     18.946409
    7665           0      1565.415771   1237.979248  -2125.000000     20.608273
    7666           0      1565.415771   1237.979248  -2375.000000     22.555870
    7667           0      1565.415771   1237.979248  -2625.000000     24.744328
    7668           0      1565.415771   1237.979248  -2874.999756     27.130552
    7669           0      1565.415771   1237.979248  -3125.000000     29.666372
    7670           0      1565.415771   1237.979248  -3375.000244     32.311302
    7671           0      1565.415771   1237.979248  -3625.000000     35.020782
    7672           0      1565.415771   1237.979248  -3875.000000     37.755470
    7673           0      1565.415771   1237.979248  -4125.000000     40.475281
    7674           0      1565.415771   1237.979248  -4375.000000     43.145767
    7675           0      1565.415771   1237.979248  -4625.000000     45.734406
    7676           0      1565.415771   1237.979248  -4875.000000     48.215263
    7677           0      1565.415771   1237.979248  -5125.000000     50.566307
    7678           0      1565.415771   1237.979248  -5375.000000     52.771721
    7679           0      1565.415771   1237.979248  -5625.000000     54.821800
    7680           0      1565.415771   1237.979248  -5875.000488     56.711357
    7681           0      1565.415771   1237.979248  -6125.000488     58.441067
    7682           0      1565.415771   1237.979248  -6375.000000     60.016373
    7683           0      1565.415771   1237.979248  -6625.000000     61.452114
    7684           0      1565.415771   1237.979370  -6875.000000     62.756893
    7685           0      1565.415771   1237.979370  -7124.999512     63.956310
    7686           0      1565.415771   1237.979370  -7374.999023     65.070580
    7687           0      1565.415771   1237.979370  -7625.000000     66.123924
    7688           0      1565.415771   1237.979370  -7875.000000     67.144585
    7689           0      1565.415771   1237.979370  -8125.000000     68.158966
    7690           0      1565.415771   1237.979370  -8375.000000     69.195549
    7691           0      1565.415771   1237.979370  -8625.000000     70.277626
    7692           0      1565.415771   1237.979370  -8875.000000     71.430092
    7693           0      1565.415771   1237.979370  -9125.000000     72.667107
    7694           0      1565.415771   1237.979370  -9375.000000     74.008858
    7695           0      1565.415771   1237.979370  -9625.000000     75.453445
    7696           0      1565.415771   1237.979370  -9875.000000     77.018341
    7697           0      1565.415771   1237.979370  -10124.99902     78.681694
    7698           0      1565.415771   1237.979370  -10374.99902     80.466866
    7699           0      1565.415771   1237.979370  -10625.00000     82.325760
    7700           0      1565.415771   1237.979370  -10875.00000     84.302139
    7701           0      1565.415771   1237.979370  -11125.00000     86.314049
    7702           0      1565.415771   1237.979370  -11375.00000     88.438164
    7703           0      1565.415771   1237.979370  -11625.00000     90.552368
    7704           0      1565.415771   1237.979370  -11875.00000     92.755272
    7705           0      1565.415771   1237.979370  -12125.00000     94.959503
    7706           0      1565.415771   1237.979370  -12374.99902     97.101791
    7707           0      1565.415771   1237.979370  -12625.00000     99.240921
    7708           0      1565.415771   1237.979370  -12874.99902    102.487564
    7709           0      1565.415771   1237.979370  -13124.99902    101.278793
    7710           0      1565.415771   1237.979370  -13374.99902    104.451622
    7711           0      1491.003052   1326.660889   -124.999985     21.811172
    7712           0      1491.003052   1326.660889   -375.000000     21.257990
    7713           0      1491.003052   1326.660889   -624.999939     19.512548
    7714           0      1491.003052   1326.660889   -875.000000     17.553186
    7715           0      1491.003052   1326.660889  -1125.000000     16.483109
    7716           0      1491.003052   1326.660889  -1375.000122     15.881352
    7717           0      1491.003052   1326.660889  -1625.000000     15.766351
    7718           0      1491.003052   1326.660889  -1874.999756     16.475340
    7719           0      1491.003052   1326.660889  -2125.000000     17.616989
    7720           0      1491.003052   1326.660889  -2375.000244     19.415970
    7721           0      1491.003052   1326.660889  -2624.999756     21.495674
    7722           0      1491.003052   1326.660889  -2874.999512     23.981264
    7723           0      1491.003052   1326.660889  -3124.999756     26.609146
    7724           0      1491.003052   1326.660889  -3375.000244     29.453110
    7725           0      1491.003052   1326.660889  -3625.000244     32.342369
    7726           0      1491.003052   1326.660889  -3875.000244     35.315441
    7727           0      1491.003052   1326.660889  -4125.000000     38.260635
    7728           0      1491.003052   1326.660889  -4375.000000     41.194355
    7729           0      1491.003052   1326.660889  -4625.000000     44.043159
    7730           0      1491.003052   1326.660889  -4875.000000     46.812405
    7731           0      1491.003052   1326.660889  -5124.999512     49.455570
    7732           0      1491.003052   1326.660889  -5374.999512     51.974937
    7733           0      1491.003052   1326.660889  -5625.000000     54.345104
    7734           0      1491.003052   1326.660889  -5875.000488     56.568592
    7735           0      1491.003052   1326.660889  -6125.000977     58.636353
    7736           0      1491.003052   1326.660889  -6375.000488     60.558025
    7737           0      1491.003052   1326.660889  -6625.000000     62.333763
    7738           0      1491.003052   1326.660889  -6875.000488     63.977139
    7739           0      1491.003052   1326.660889  -7124.999512     65.501869
    7740           0      1491.003052   1326.660889  -7374.999023     66.923531
    7741           0      1491.003052   1326.660889  -7625.000000     68.261116
    7742           0      1491.003052   1326.660889  -7875.000000     69.532738
    7743           0      1491.003052   1326.660889  -8124.999023     70.760254
    7744           0      1491.003052   1326.660889  -8374.999023     71.960663
    7745           0      1491.003052   1326.660889  -8625.000000     73.155396
    7746           0      1491.003052   1326.660889  -8875.000977     74.355980
    7747           0      1491.003052   1326.660889  -9125.000000     75.581604
    7748           0      1491.003052   1326.660889  -9374.999023     76.836281
    7749           0      1491.003052   1326.660889  -9625.000000     78.135544
    7750           0      1491.003052   1326.660889  -9875.000000     79.475243
    7751           0      1491.003052   1326.660889  -10125.00000     80.868668
    7752           0      1491.003052   1326.660889  -10375.00000     82.306984
    7753           0      1491.003052   1326.660889  -10624.99902     83.798134
    7754           0      1491.003052   1326.660889  -10875.00097     85.337219
    7755           0      1491.003052   1326.660889  -11125.00097     86.918282
    7756           0      1491.003052   1326.660889  -11375.00000     88.550987
    7757           0      1491.003052   1326.660889  -11625.00000     90.198296
    7758           0      1491.003052   1326.660889  -11875.00000     91.896851
    7759           0      1491.003052   1326.660889  -12125.00000     93.594620
    7760           0      1491.003052   1326.660889  -12374.99902     95.293167
    7761           0      1491.003052   1326.660889  -12625.00000     96.900169
    7762           0      1491.003052   1326.660889  -12874.99902     99.418823
    7763           0      1491.003052   1326.660889  -13124.99804     99.300964
    7764           0      1491.003052   1326.660889  -13374.99902     97.656052
    7765           0      1408.831787   1408.832031   -124.999985     24.076584
    7766           0      1408.831787   1408.832031   -374.999969     23.577845
    7767           0      1408.831787   1408.832031   -624.999939     20.278053
    7768           0      1408.831787   1408.832031   -874.999878     18.215973
    7769           0      1408.831787   1408.832031  -1124.999878     15.913988
    7770           0      1408.831787   1408.832031  -1375.000244     14.494028
    7771           0      1408.831787   1408.832031  -1625.000000     13.444030
    7772           0      1408.831787   1408.832031  -1874.999512     13.312076
    7773           0      1408.831787   1408.832031  -2125.000244     13.990232
    7774           0      1408.831787   1408.832031  -2375.000244     15.374775
    7775           0      1408.831787   1408.832031  -2624.999756     17.382835
    7776           0      1408.831787   1408.832031  -2874.999512     19.725317
    7777           0      1408.831787   1408.832031  -3124.999512     22.392424
    7778           0      1408.831787   1408.832031  -3375.000488     25.179113
    7779           0      1408.831787   1408.832031  -3625.000488     28.110218
    7780           0      1408.831787   1408.832031  -3875.000244     31.058838
    7781           0      1408.831787   1408.832031  -4125.000488     34.048141
    7782           0      1408.831787   1408.832031  -4375.000488     36.998173
    7783           0      1408.831787   1408.832031  -4625.000488     39.923466
    7784           0      1408.831787   1408.832031  -4874.999512     42.772701
    7785           0      1408.831787   1408.832031  -5124.999512     45.554676
    7786           0      1408.831787   1408.832031  -5374.999023     48.236374
    7787           0      1408.831787   1408.832031  -5625.000000     50.826221
    7788           0      1408.831787   1408.832031  -5875.000977     53.300888
    7789           0      1408.832031   1408.831909  -6125.000977     55.672890
    7790           0      1408.832031   1408.831909  -6375.000000     57.932594
    7791           0      1408.832031   1408.831909  -6625.000000     60.083012
    7792           0      1408.832031   1408.831909  -6875.000977     62.131557
    7793           0      1408.832031   1408.831909  -7124.999023     64.083076
    7794           0      1408.832031   1408.831909  -7374.998535     65.945351
    7795           0      1408.832031   1408.831909  -7625.000000     67.728340
    7796           0      1408.832031   1408.831909  -7875.000000     69.441612
    7797           0      1408.832031   1408.831909  -8124.999023     71.094116
    7798           0      1408.832031   1408.831909  -8374.999023     72.697968
    7799           0      1408.832031   1408.831909  -8625.000000     74.260178
    7800           0      1408.832031   1408.831909  -8875.000977     75.791534
    7801           0      1408.832031   1408.831909  -9125.000000     77.298508
    7802           0      1408.832031   1408.831909  -9374.998047     78.788651
    7803           0      1408.832031   1408.831909  -9625.000000     80.270233
    7804           0      1408.832031   1408.831909  -9875.000000     81.742805
    7805           0      1408.832031   1408.831909  -10125.00000     83.223892
    7806           0      1408.832031   1408.831909  -10375.00000     84.697693
    7807           0      1408.832031   1408.831909  -10624.99804     86.199936
    7808           0      1408.832031   1408.831909  -10875.00195     87.686501
    7809           0      1408.832031   1408.831909  -11125.00195     89.229385
    7810           0      1408.832031   1408.831909  -11375.00000     90.728233
    7811           0      1408.832031   1408.831909  -11625.00000     92.325981
    7812           0      1408.832031   1408.831909  -11875.00000     93.822586
    7813           0      1408.832031   1408.831909  -12125.00000     95.469063
    7814           0      1408.832031   1408.831909  -12375.00000     97.005081
    7815           0      1408.832031   1408.831909  -12625.00000     98.557816
    7816           0      1408.832031   1408.832031  -12874.99804    100.052589
    7817           0      1408.831909   1408.832031  -13124.99609    103.723106
    7818           0      1408.831909   1408.832031  -13374.99804     95.873856
    7819           0      1326.660767   1491.003174   -124.999992     29.826782
    7820           0      1326.660767   1491.003174   -375.000000     25.507275
    7821           0      1326.660767   1491.003174   -625.000000     23.882608
    7822           0      1326.660767   1491.003174   -874.999939     20.016172
    7823           0      1326.660767   1491.003174  -1125.000000     17.621050
    7824           0      1326.660767   1491.003174  -1375.000122     14.828643
    7825           0      1326.660767   1491.003174  -1625.000000     13.129934
    7826           0      1326.660767   1491.003174  -1874.999756     11.916970
    7827           0      1326.660767   1491.003174  -2125.000000     12.038071
    7828           0      1326.660767   1491.003174  -2375.000000     13.136711
    7829           0      1326.660767   1491.003174  -2625.000000     15.146772
    7830           0      1326.660767   1491.003174  -2874.999756     17.715708
    7831           0      1326.660767   1491.003174  -3125.000000     20.627657
    7832           0      1326.660767   1491.003174  -3375.000244     23.763645
    7833           0      1326.660767   1491.003174  -3625.000000     27.002186
    7834           0      1326.660767   1491.003174  -3875.000000     30.314245
    7835           0      1326.660767   1491.003174  -4125.000000     33.627983
    7836           0      1326.660767   1491.003174  -4375.000000     36.935177
    7837           0      1326.660767   1491.003174  -4625.000000     40.188988
    7838           0      1326.660767   1491.003174  -4875.000000     43.384899
    7839           0      1326.660767   1491.003174  -5125.000000     46.491539
    7840           0      1326.660767   1491.003174  -5375.000000     49.504974
    7841           0      1326.660767   1491.003174  -5625.000000     52.405758
    7842           0      1326.660767   1491.003174  -5875.000488     55.189224
    7843           0      1326.660767   1491.003174  -6125.000488     57.848305
    7844           0      1326.660767   1491.003174  -6375.000000     60.378731
    7845           0      1326.660767   1491.003174  -6625.000000     62.776089
    7846           0      1326.660767   1491.003174  -6875.000000     65.046127
    7847           0      1326.660767   1491.003174  -7124.999512     67.186966
    7848           0      1326.660767   1491.003174  -7374.999023     69.204399
    7849           0      1326.660767   1491.003174  -7625.000000     71.104164
    7850           0      1326.660767   1491.003174  -7875.000000     72.892601
    7851           0      1326.660767   1491.003174  -8125.000000     74.578735
    7852           0      1326.660767   1491.003174  -8375.000000     76.170609
    7853           0      1326.660767   1491.003174  -8625.000000     77.679657
    7854           0      1326.660767   1491.003174  -8875.000000     79.114754
    7855           0      1326.660767   1491.003174  -9125.000000     80.488640
    7856           0      1326.660767   1491.003174  -9375.000000     81.812347
    7857           0      1326.660767   1491.003174  -9625.000000     83.096893
    7858           0      1326.660767   1491.003174  -9875.000000     84.356194
    7859           0      1326.660767   1491.003174  -10124.99902     85.596001
    7860           0      1326.660767   1491.003174  -10374.99902     86.836464
    7861           0      1326.660767   1491.003174  -10625.00000     88.068199
    7862           0      1326.660767   1491.003174  -10875.00000     89.327080
    7863           0      1326.660767   1491.003174  -11125.00000     90.573723
    7864           0      1326.660767   1491.003174  -11375.00000     91.877716
    7865           0      1326.660767   1491.003174  -11625.00000     93.147652
    7866           0      1326.660767   1491.003174  -11875.00000     94.508240
    7867           0      1326.660767   1491.003174  -12125.00000     95.832909
    7868           0      1326.660767   1491.003174  -12374.99902     97.208214
    7869           0      1326.660767   1491.003174  -12625.00000     98.478363
    7870           0      1326.660767   1491.003174  -12874.99902    100.956543
    7871           0      1326.660767   1491.003174  -13124.99902     99.192924
    7872           0      1326.660767   1491.003174  -13374.99902    101.032005
    7873           0      1237.979248   1565.415771   -124.999985     29.634811
    7874           0      1237.979248   1565.415771   -375.000000     26.366512
    7875           0      1237.979248   1565.415771   -624.999939     23.830526
    7876           0      1237.979248   1565.415771   -875.000000     19.771835
    7877           0      1237.979248   1565.415771  -1125.000000     16.793238
    7878           0      1237.979248   1565.415771  -1375.000122     13.534012
    7879           0      1237.979248   1565.415771  -1625.000000     10.943968
    7880           0      1237.979248   1565.415771  -1874.999756      9.090321
    7881           0      1237.979248   1565.415771  -2125.000000      8.599579
    7882           0      1237.979248   1565.415771  -2375.000244      9.831774
    7883           0      1237.979248   1565.415771  -2624.999756     12.092962
    7884           0      1237.979248   1565.415771  -2874.999512     15.114388
    7885           0      1237.979248   1565.415771  -3124.999756     18.366346
    7886           0      1237.979248   1565.415771  -3375.000244     21.862251
    7887           0      1237.979248   1565.415771  -3625.000244     25.387859
    7888           0      1237.979248   1565.415771  -3875.000244     28.987494
    7889           0      1237.979248   1565.415771  -4125.000000     32.553440
    7890           0      1237.979248   1565.415771  -4375.000000     36.111423
    7891           0      1237.979248   1565.415771  -4625.000000     39.599354
    7892           0      1237.979248   1565.415771  -4875.000000     43.027554
    7893           0      1237.979248   1565.415771  -5124.999512     46.358105
    7894           0      1237.979248   1565.415771  -5374.999512     49.593597
    7895           0      1237.979248   1565.415771  -5625.000000     52.710228
    7896           0      1237.979248   1565.415771  -5875.000488     55.708282
    7897           0      1237.979248   1565.415771  -6125.000977     58.574230
    7898           0      1237.979248   1565.415771  -6375.000488     61.306881
    7899           0      1237.979248   1565.415771  -6625.000000     63.900726
    7900           0      1237.979248   1565.415771  -6875.000488     66.356346
    7901           0      1237.979248   1565.415771  -7124.999512     68.673538
    7902           0      1237.979248   1565.415771  -7374.999023     70.855476
    7903           0      1237.979248   1565.415771  -7625.000000     72.905396
    7904           0      1237.979248   1565.415771  -7875.000000     74.830551
    7905           0      1237.979248   1565.415771  -8124.999023     76.636154
    7906           0      1237.979248   1565.415771  -8374.999023     78.334053
    7907           0      1237.979248   1565.415771  -8625.000000     79.930946
    7908           0      1237.979248   1565.415771  -8875.000977     81.442741
    7909           0      1237.979248   1565.415771  -9125.000000     82.876587
    7910           0      1237.979248   1565.415771  -9374.999023     84.253296
    7911           0      1237.979248   1565.415771  -9625.000000     85.577278
    7912           0      1237.979248   1565.415771  -9875.000000     86.873711
    7913           0      1237.979248   1565.415771  -10125.00000     88.140877
    7914           0      1237.979248   1565.415771  -10375.00000     89.409477
    7915           0      1237.979248   1565.415771  -10624.99902     90.663551
    7916           0      1237.979248   1565.415771  -10875.00097     91.945251
    7917           0      1237.979248   1565.415771  -11125.00097     93.216263
    7918           0      1237.979248   1565.415771  -11375.00000     94.537842
    7919           0      1237.979248   1565.415771  -11625.00000     95.844963
    7920           0      1237.979248   1565.415771  -11875.00000     97.215645
    7921           0      1237.979248   1565.415771  -12125.00000     98.599297
    7922           0      1237.979248   1565.415771  -12374.99902    100.001450
    7923           0      1237.979248   1565.415771  -12625.00000    101.304260
    7924           0      1237.979248   1565.415771  -12874.99902    103.725632
    7925           0      1237.979248   1565.415771  -13124.99804    103.130844
    7926           0      1237.979248   1565.415771  -13374.99902    101.325096
    7927           0      1142.787476   1632.069824   -124.999985     25.576088
    7928           0      1142.787476   1632.069824   -374.999969     24.925095
    7929           0      1142.787476   1632.069824   -624.999939     20.441097
    7930           0      1142.787476   1632.069824   -874.999878     17.570814
    7931           0      1142.787476   1632.069824  -1124.999878     13.906104
    7932           0      1142.787476   1632.069824  -1375.000244     11.148177
    7933           0      1142.787476   1632.069824  -1625.000000      8.334380
    7934           0      1142.787476   1632.069824  -1874.999512      6.895319
    7935           0      1142.787476   1632.069824  -2125.000244      7.147085
    7936           0      1142.787476   1632.069824  -2375.000244      9.059660
    7937           0      1142.787476   1632.069824  -2624.999756     11.950027
    7938           0      1142.787476   1632.069824  -2874.999512     15.147140
    7939           0      1142.787476   1632.069824  -3124.999512     18.617386
    7940           0      1142.787476   1632.069824  -3375.000488     22.113291
    7941           0      1142.787476   1632.069824  -3625.000488     25.703310
    7942           0      1142.787476   1632.069824  -3875.000244     29.261311
    7943           0      1142.787476   1632.069824  -4125.000488     32.835499
    7944           0      1142.787476   1632.069824  -4375.000488     36.351402
    7945           0      1142.787476   1632.069824  -4625.000488     39.834827
    7946           0      1142.787476   1632.069824  -4874.999512     43.238739
    7947           0      1142.787476   1632.069824  -5124.999512     46.575481
    7948           0      1142.787476   1632.069824  -5374.999023     49.814335
    7949           0      1142.787476   1632.069824  -5625.000000     52.960583
    7950           0      1142.787476   1632.069824  -5875.000977     55.995556
    7951           0      1142.787476   1632.069824  -6125.000977     58.920036
    7952           0      1142.787476   1632.069824  -6375.000000     61.723152
    7953           0      1142.787476   1632.069824  -6625.000000     64.408432
    7954           0      1142.787354   1632.069824  -6875.000977     66.967796
    7955           0      1142.787354   1632.069824  -7124.999023     69.406425
    7956           0      1142.787354   1632.069824  -7374.998535     71.722961
    7957           0      1142.787354   1632.069824  -7625.000000     73.923264
    7958           0      1142.787354   1632.069824  -7875.000000     76.010384
    7959           0      1142.787354   1632.069824  -8124.999023     77.992912
    7960           0      1142.787354   1632.069824  -8374.999023     79.876953
    7961           0      1142.787354   1632.069824  -8625.000000     81.675102
    7962           0      1142.787354   1632.069824  -8875.000977     83.393318
    7963           0      1142.787354   1632.069824  -9125.000000     85.049774
    7964           0      1142.787354   1632.069824  -9374.998047     86.647202
    7965           0      1142.787354   1632.069824  -9625.000000     88.211479
    7966           0      1142.787354   1632.069824  -9875.000000     89.734337
    7967           0      1142.787354   1632.069824  -10125.00000     91.256020
    7968           0      1142.787354   1632.069824  -10375.00000     92.746269
    7969           0      1142.787354   1632.069824  -10624.99804     94.269463
    7970           0      1142.787354   1632.069824  -10875.00195     95.757355
    7971           0      1142.787354   1632.069824  -11125.00195     97.320335
    7972           0      1142.787354   1632.069824  -11375.00000     98.821472
    7973           0      1142.787354   1632.069824  -11625.00000    100.459641
    7974           0      1142.787354   1632.069824  -11875.00000    101.978485
    7975           0      1142.787354   1632.069824  -12125.00000    103.707397
    7976           0      1142.787354   1632.069824  -12375.00000    105.324142
    7977           0      1142.787354   1632.069824  -12625.00000    106.947418
    7978           0      1142.787354   1632.069824  -12874.99804    108.720947
    7979           0      1142.787354   1632.069824  -13124.99609    112.529045
    7980           0      1142.787476   1632.069824  -13374.99804    104.012772
    7981           0      1047.595825   1698.723877   -124.999992     25.699251
    7982           0      1047.595825   1698.723877   -375.000000     22.442194
    7983           0      1047.595825   1698.723877   -625.000000     19.997049
    7984           0      1047.595825   1698.723877   -874.999939     15.953514
    7985           0      1047.595825   1698.723877  -1125.000000     12.817472
    7986           0      1047.595825   1698.723877  -1375.000122      9.153143
    7987           0      1047.595825   1698.723877  -1625.000000      5.934613
    7988           0      1047.595825   1698.723877  -1874.999756      2.812193
    7989           0      1047.595825   1698.723877  -2125.000000      2.888892
    7990           0      1047.595825   1698.723877  -2375.000000      5.915143
    7991           0      1047.595825   1698.723877  -2625.000000      9.382991
    7992           0      1047.595825   1698.723877  -2874.999756     13.016814
    7993           0      1047.595825   1698.723877  -3125.000000     16.640831
    7994           0      1047.595825   1698.723877  -3375.000244     20.322788
    7995           0      1047.595825   1698.723877  -3625.000000     23.971762
    7996           0      1047.595825   1698.723877  -3875.000000     27.634645
    7997           0      1047.595825   1698.723877  -4125.000000     31.251953
    7998           0      1047.595825   1698.723877  -4375.000000     34.848030
    7999           0      1047.595825   1698.723877  -4625.000000     38.381683
    8000           0      1047.595825   1698.723877  -4875.000000     41.862572
    8001           0      1047.595825   1698.723877  -5125.000000     45.261703
    8002           0      1047.595825   1698.723877  -5375.000000     48.580433
    8003           0      1047.595825   1698.723877  -5625.000000     51.799240
    8004           0      1047.595825   1698.723877  -5875.000488     54.916378
    8005           0      1047.595825   1698.723877  -6125.000488     57.918732
    8006           0      1047.595825   1698.723877  -6375.000000     60.805576
    8007           0      1047.595825   1698.723877  -6625.000000     63.571404
    8008           0      1047.595825   1698.723877  -6875.000000     66.216034
    8009           0      1047.595703   1698.723877  -7124.999512     68.739410
    8010           0      1047.595703   1698.723877  -7374.999023     71.146034
    8011           0      1047.595703   1698.723877  -7625.000000     73.440102
    8012           0      1047.595703   1698.723877  -7875.000000     75.629494
    8013           0      1047.595703   1698.723877  -8125.000000     77.722153
    8014           0      1047.595703   1698.723877  -8375.000000     79.729614
    8015           0      1047.595703   1698.723877  -8625.000000     81.661545
    8016           0      1047.595703   1698.723877  -8875.000000     83.531670
    8017           0      1047.595703   1698.723877  -9125.000000     85.349335
    8018           0      1047.595703   1698.723877  -9375.000000     87.131088
    8019           0      1047.595703   1698.723877  -9625.000000     88.880936
    8020           0      1047.595703   1698.723877  -9875.000000     90.619720
    8021           0      1047.595703   1698.723877  -10124.99902     92.341217
    8022           0      1047.595703   1698.723877  -10374.99902     94.077354
    8023           0      1047.595703   1698.723877  -10625.00000     95.798744
    8024           0      1047.595703   1698.723877  -10875.00000     97.566727
    8025           0      1047.595703   1698.723877  -11125.00000     99.305176
    8026           0      1047.595703   1698.723877  -11375.00000    101.138924
    8027           0      1047.595703   1698.723877  -11625.00000    102.898979
    8028           0      1047.595703   1698.723877  -11875.00000    104.829842
    8029           0      1047.595703   1698.723877  -12125.00000    106.629349
    8030           0      1047.595703   1698.723877  -12374.99902    108.650558
    8031           0      1047.595703   1698.723877  -12625.00000    110.329803
    8032           0      1047.595703   1698.723877  -12874.99902    113.683372
    8033           0      1047.595703   1698.723877  -13124.99902    112.037453
    8034           0      1047.595825   1698.723877  -13374.99902    114.146835
    8035           0       947.339905   1756.606445   -124.999985     23.549473
    8036           0       947.339905   1756.606445   -375.000000     19.888515
    8037           0       947.339905   1756.606445   -624.999939     17.782688
    8038           0       947.339905   1756.606445   -875.000000     13.951044
    8039           0       947.339905   1756.606445  -1125.000000     11.054902
    8040           0       947.339905   1756.606445  -1375.000122      7.526414
    8041           0       947.339905   1756.606445  -1625.000000      4.488655
    8042           0       947.339905   1756.606445  -1874.999756      1.656222
    8043           0       947.339905   1756.606445  -2125.000000      3.096436
    8044           0       947.339905   1756.606445  -2375.000244      6.388816
    8045           0       947.339905   1756.606445  -2624.999756      9.766743
    8046           0       947.339905   1756.606445  -2874.999512     13.277876
    8047           0       947.339905   1756.606445  -3124.999756     16.759928
    8048           0       947.339905   1756.606445  -3375.000244     20.299582
    8049           0       947.339905   1756.606445  -3625.000244     23.812862
    8050           0       947.339905   1756.606445  -3875.000244     27.343647
    8051           0       947.339905   1756.606445  -4125.000000     30.842731
    8052           0       947.339905   1756.606445  -4375.000000     34.327560
    8053           0       947.339905   1756.606445  -4625.000000     37.766552
    8054           0       947.339905   1756.606445  -4875.000000     41.162750
    8055           0       947.339905   1756.606445  -5124.999512     44.494404
    8056           0       947.339905   1756.606445  -5374.999512     47.758221
    8057           0       947.339905   1756.606445  -5625.000000     50.939117
    8058           0       947.339905   1756.606445  -5875.000488     54.032154
    8059           0       947.339905   1756.606445  -6125.000977     57.027561
    8060           0       947.339905   1756.606445  -6375.000488     59.922894
    8061           0       947.339905   1756.606445  -6625.000000     62.713959
    8062           0       947.339905   1756.606445  -6875.000488     65.401421
    8063           0       947.339905   1756.606445  -7124.999512     67.985313
    8064           0       947.339905   1756.606445  -7374.999023     70.471962
    8065           0       947.339905   1756.606445  -7625.000000     72.864471
    8066           0       947.339905   1756.606445  -7875.000000     75.174347
    8067           0       947.339905   1756.606445  -8124.999023     77.405907
    8068           0       947.339905   1756.606445  -8374.999023     79.576286
    8069           0       947.339905   1756.606445  -8625.000000     81.687973
    8070           0       947.339905   1756.606445  -8875.000977     83.763054
    8071           0       947.339905   1756.606445  -9125.000000     85.798584
    8072           0       947.339905   1756.606445  -9374.999023     87.823143
    8073           0       947.339905   1756.606445  -9625.000000     89.822838
    8074           0       947.339905   1756.606445  -9875.000000     91.835480
    8075           0       947.339905   1756.606445  -10125.00000     93.830872
    8076           0       947.339905   1756.606445  -10375.00000     95.863472
    8077           0       947.339905   1756.606445  -10624.99902     97.875893
    8078           0       947.339905   1756.606445  -10875.00097     99.954437
    8079           0       947.339905   1756.606445  -11125.00097    101.998680
    8080           0       947.339905   1756.606445  -11375.00000    104.146492
    8081           0       947.339905   1756.606445  -11625.00000    106.233559
    8082           0       947.339905   1756.606445  -11875.00000    108.463379
    8083           0       947.339905   1756.606445  -12125.00000    110.625465
    8084           0       947.339905   1756.606445  -12374.99902    112.933151
    8085           0       947.339905   1756.606445  -12625.00000    114.944176
    8086           0       947.339905   1756.606445  -12874.99902    118.608055
    8087           0       947.339905   1756.606445  -13124.99804    118.011879
    8088           0       947.339905   1756.606445  -13374.99902    117.681297
    8089           0       842.020020   1805.718018   -124.999985     18.611292
    8090           0       842.020020   1805.718018   -374.999969     18.301456
    8091           0       842.020020   1805.718018   -624.999939     14.470537
    8092           0       842.020020   1805.718018   -874.999878     12.614500
    8093           0       842.020020   1805.718018  -1124.999878     10.014300
    8094           0       842.020020   1805.718018  -1375.000244      8.444308
    8095           0       842.020020   1805.718018  -1625.000000      7.445989
    8096           0       842.020020   1805.718018  -1874.999512      7.761441
    8097           0       842.020020   1805.718018  -2125.000244      9.235161
    8098           0       842.020020   1805.718018  -2375.000244     11.361884
    8099           0       842.020020   1805.718018  -2624.999756     13.990943
    8100           0       842.020020   1805.718018  -2874.999512     16.772675
    8101           0       842.020020   1805.718018  -3124.999512     19.758575
    8102           0       842.020020   1805.718018  -3375.000488     22.779778
    8103           0       842.020020   1805.718018  -3625.000488     25.893888
    8104           0       842.020020   1805.718018  -3875.000244     29.010002
    8105           0       842.020020   1805.718018  -4125.000488     32.163017
    8106           0       842.020020   1805.718018  -4375.000488     35.300041
    8107           0       842.020020   1805.718018  -4625.000488     38.438133
    8108           0       842.020020   1805.718018  -4874.999512     41.544170
    8109           0       842.020020   1805.718018  -5124.999512     44.625015
    8110           0       842.020020   1805.718018  -5374.999023     47.658951
    8111           0       842.020020   1805.718018  -5625.000000     50.647903
    8112           0       842.020020   1805.718018  -5875.000977     53.577858
    8113           0       842.020020   1805.718018  -6125.000977     56.449646
    8114           0       842.020020   1805.718018  -6375.000000     59.254898
    8115           0       842.020020   1805.718018  -6625.000000     61.996532
    8116           0       842.020020   1805.718018  -6875.000977     64.670486
    8117           0       842.020020   1805.718018  -7124.999023     67.282242
    8118           0       842.020020   1805.718018  -7374.998535     69.831795
    8119           0       842.020020   1805.718018  -7625.000000     72.327698
    8120           0       842.020020   1805.718018  -7875.000000     74.772026
    8121           0       842.020020   1805.718018  -8124.999023     77.176704
    8122           0       842.020020   1805.718018  -8374.999023     79.543480
    8123           0       842.020020   1805.718018  -8625.000000     81.888847
    8124           0       842.020020   1805.718018  -8875.000977     84.209419
    8125           0       842.020020   1805.718018  -9125.000000     86.528175
    8126           0       842.020020   1805.718018  -9374.998047     88.832352
    8127           0       842.020020   1805.718018  -9625.000000     91.156036
    8128           0       842.020020   1805.718018  -9875.000000     93.467514
    8129           0       842.020020   1805.718018  -10125.00000     95.823143
    8130           0       842.020020   1805.718018  -10375.00000     98.159157
    8131           0       842.020020   1805.718018  -10624.99804    100.570854
    8132           0       842.020020   1805.718018  -10875.00195    102.940170
    8133           0       842.020020   1805.718018  -11125.00195    105.434082
    8134           0       842.020020   1805.718018  -11375.00000    107.835579
    8135           0       842.020020   1805.718018  -11625.00000    110.444832
    8136           0       842.020020   1805.718018  -11875.00000    112.866493
    8137           0       842.019897   1805.718018  -12125.00000    115.609001
    8138           0       842.019897   1805.718018  -12375.00000    118.140511
    8139           0       842.019897   1805.718018  -12625.00000    120.734467
    8140           0       842.019897   1805.718018  -12874.99804    123.613075
    8141           0       842.019897   1805.718018  -13124.99609    128.488022
    8142           0       842.020020   1805.718018  -13374.99804    119.468338
    8143           0       736.700073   1854.829468   -124.999992     16.908823
    8144           0       736.700073   1854.829468   -375.000000     15.920049
    8145           0       736.700073   1854.829468   -625.000000     13.548630
    8146           0       736.700073   1854.829468   -874.999939     11.260809
    8147           0       736.700073   1854.829468  -1125.000000      9.272665
    8148           0       736.700073   1854.829468  -1375.000122      7.663682
    8149           0       736.700073   1854.829468  -1625.000000      6.602773
    8150           0       736.700073   1854.829468  -1874.999756      6.753766
    8151           0       736.700073   1854.829468  -2125.000000      7.776580
    8152           0       736.700073   1854.829468  -2375.000000      9.684784
    8153           0       736.700073   1854.829468  -2625.000000     11.886473
    8154           0       736.700073   1854.829468  -2874.999756     14.416159
    8155           0       736.700073   1854.829468  -3125.000000     17.022760
    8156           0       736.700073   1854.829468  -3375.000244     19.770660
    8157           0       736.700073   1854.829468  -3625.000000     22.544827
    8158           0       736.700073   1854.829468  -3875.000000     25.388481
    8159           0       736.700073   1854.829468  -4125.000000     28.241085
    8160           0       736.700073   1854.829468  -4375.000000     31.126797
    8161           0       736.700073   1854.829468  -4625.000000     34.011143
    8162           0       736.700073   1854.829468  -4875.000000     36.905956
    8163           0       736.700073   1854.829468  -5125.000000     39.790878
    8164           0       736.700073   1854.829468  -5375.000000     42.670403
    8165           0       736.700073   1854.829468  -5625.000000     45.532940
    8166           0       736.700073   1854.829468  -5875.000488     48.379459
    8167           0       736.700073   1854.829468  -6125.000488     51.203808
    8168           0       736.700073   1854.829468  -6375.000000     54.006691
    8169           0       736.700073   1854.829468  -6625.000000     56.786270
    8170           0       736.700073   1854.829468  -6875.000000     59.543686
    8171           0       736.700073   1854.829468  -7124.999512     62.279884
    8172           0       736.700073   1854.829468  -7374.999023     64.998825
    8173           0       736.700073   1854.829468  -7625.000000     67.702042
    8174           0       736.700073   1854.829468  -7875.000000     70.395782
    8175           0       736.700073   1854.829468  -8125.000000     73.080978
    8176           0       736.700073   1854.829468  -8375.000000     75.766731
    8177           0       736.700073   1854.829468  -8625.000000     78.451286
    8178           0       736.700073   1854.829468  -8875.000000     81.145889
    8179           0       736.700073   1854.829468  -9125.000000     83.844765
    8180           0       736.700073   1854.829468  -9375.000000     86.564323
    8181           0       736.700073   1854.829468  -9625.000000     89.289658
    8182           0       736.700073   1854.829468  -9875.000000     92.047035
    8183           0       736.700073   1854.829468  -10124.99902     94.807053
    8184           0       736.700073   1854.829468  -10374.99902     97.616531
    8185           0       736.700073   1854.829468  -10625.00000    100.414528
    8186           0       736.700073   1854.829468  -10875.00000    103.292877
    8187           0       736.700073   1854.829468  -11125.00000    106.127274
    8188           0       736.700073   1854.829468  -11375.00000    109.098061
    8189           0       736.700073   1854.829468  -11625.00000    111.957619
    8190           0       736.700073   1854.829468  -11875.00000    115.048805
    8191           0       736.700073   1854.829468  -12125.00000    117.937088
    8192           0       736.700073   1854.829468  -12374.99902    121.155022
    8193           0       736.700073   1854.829468  -12625.00000    123.847588
    8194           0       736.700073   1854.829468  -12874.99902    128.637711
    8195           0       736.700073   1854.829468  -13124.99902    127.660828
    8196           0       736.700073   1854.829468  -13374.99902    130.354462
    8197           0       627.916199   1894.423584   -124.999985     16.128031
    8198           0       627.916199   1894.423584   -375.000000     13.935892
    8199           0       627.916199   1894.423584   -624.999939     13.125863
    8200           0       627.916199   1894.423584   -875.000000     11.121135
    8201           0       627.916199   1894.423584  -1125.000000     10.150592
    8202           0       627.916199   1894.423584  -1375.000122      9.101870
    8203           0       627.916199   1894.423584  -1625.000000      8.889697
    8204           0       627.916199   1894.423584  -1874.999756      9.149501
    8205           0       627.916199   1894.423584  -2125.000000     10.095398
    8206           0       627.916199   1894.423584  -2375.000244     11.499640
    8207           0       627.916199   1894.423584  -2624.999756     13.253058
    8208           0       627.916199   1894.423584  -2874.999512     15.261361
    8209           0       627.916199   1894.423584  -3124.999756     17.427231
    8210           0       627.916199   1894.423584  -3375.000244     19.729584
    8211           0       627.916199   1894.423584  -3625.000244     22.113092
    8212           0       627.916199   1894.423584  -3875.000244     24.575872
    8213           0       627.916199   1894.423584  -4125.000000     27.087685
    8214           0       627.916199   1894.423584  -4375.000000     29.649313
    8215           0       627.916199   1894.423584  -4625.000000     32.244198
    8216           0       627.916199   1894.423584  -4875.000000     34.872368
    8217           0       627.916199   1894.423584  -5124.999512     37.524754
    8218           0       627.916199   1894.423584  -5374.999512     40.200645
    8219           0       627.916199   1894.423584  -5625.000000     42.895222
    8220           0       627.916199   1894.423584  -5875.000488     45.607613
    8221           0       627.916199   1894.423584  -6125.000977     48.335419
    8222           0       627.916199   1894.423584  -6375.000488     51.078899
    8223           0       627.916199   1894.423584  -6625.000000     53.837170
    8224           0       627.916199   1894.423584  -6875.000488     56.611687
    8225           0       627.916199   1894.423584  -7124.999512     59.402004
    8226           0       627.916199   1894.423584  -7374.999023     62.212109
    8227           0       627.916199   1894.423584  -7625.000000     65.040260
    8228           0       627.916199   1894.423584  -7875.000000     67.892822
    8229           0       627.916199   1894.423584  -8124.999023     70.765358
    8230           0       627.916199   1894.423584  -8374.999023     73.667839
    8231           0       627.916199   1894.423584  -8625.000000     76.590858
    8232           0       627.916199   1894.423584  -8875.000977     79.549187
    8233           0       627.916199   1894.423584  -9125.000000     82.525749
    8234           0       627.916199   1894.423584  -9374.999023     85.544617
    8235           0       627.916199   1894.423584  -9625.000000     88.575737
    8236           0       627.916199   1894.423584  -9875.000000     91.658806
    8237           0       627.916199   1894.423584  -10125.00000     94.743622
    8238           0       627.916199   1894.423584  -10375.00000     97.897202
    8239           0       627.916199   1894.423584  -10624.99902    101.032646
    8240           0       627.916199   1894.423584  -10875.00097    104.266518
    8241           0       627.916199   1894.423584  -11125.00097    107.447800
    8242           0       627.916199   1894.423584  -11375.00000    110.777115
    8243           0       627.916199   1894.423584  -11625.00000    113.995895
    8244           0       627.916199   1894.423584  -11875.00000    117.433144
    8245           0       627.916199   1894.423584  -12125.00000    120.705429
    8246           0       627.916199   1894.423584  -12374.99902    124.250404
    8247           0       627.916199   1894.423584  -12625.00000    127.302521
    8248           0       627.916199   1894.423584  -12874.99902    132.493454
    8249           0       627.916199   1894.423584  -13124.99804    132.061859
    8250           0       627.916199   1894.423584  -13374.99902    134.020279
    8251           0       515.668213   1924.500366   -124.999985     14.604115
    8252           0       515.668213   1924.500366   -374.999969     14.997445
    8253           0       515.668213   1924.500366   -624.999939     13.248899
    8254           0       515.668213   1924.500366   -874.999878     12.905745
    8255           0       515.668213   1924.500366  -1124.999878     12.386580
    8256           0       515.668213   1924.500366  -1375.000244     12.324139
    8257           0       515.668213   1924.500366  -1625.000000     12.615743
    8258           0       515.668213   1924.500366  -1874.999512     13.194678
    8259           0       515.668213   1924.500366  -2125.000244     14.161515
    8260           0       515.668213   1924.500366  -2375.000244     15.327148
    8261           0       515.668213   1924.500366  -2624.999756     16.784536
    8262           0       515.668213   1924.500366  -2874.999512     18.370911
    8263           0       515.668213   1924.500366  -3124.999512     20.152933
    8264           0       515.668213   1924.500366  -3375.000488     22.023050
    8265           0       515.668213   1924.500366  -3625.000488     24.023712
    8266           0       515.668213   1924.500366  -3875.000244     26.091179
    8267           0       515.668213   1924.500366  -4125.000488     28.250368
    8268           0       515.668213   1924.500366  -4375.000488     30.465332
    8269           0       515.668213   1924.500366  -4625.000488     32.750240
    8270           0       515.668213   1924.500366  -4874.999512     35.085094
    8271           0       515.668213   1924.500366  -5124.999512     37.478291
    8272           0       515.668213   1924.500366  -5374.999023     39.918682
    8273           0       515.668213   1924.500366  -5625.000000     42.411625
    8274           0       515.668213   1924.500366  -5875.000977     44.950832
    8275           0       515.668213   1924.500366  -6125.000977     47.540123
    8276           0       515.668213   1924.500366  -6375.000000     50.175491
    8277           0       515.668213   1924.500366  -6625.000000     52.860901
    8278           0       515.668213   1924.500366  -6875.000977     55.592808
    8279           0       515.668152   1924.500366  -7124.999023     58.375145
    8280           0       515.668152   1924.500366  -7374.998535     61.204533
    8281           0       515.668152   1924.500366  -7625.000000     64.085442
    8282           0       515.668152   1924.500366  -7875.000000     67.012680
    8283           0       515.668152   1924.500366  -8124.999023     69.992493
    8284           0       515.668152   1924.500366  -8374.999023     73.016258
    8285           0       515.668152   1924.500366  -8625.000000     76.094772
    8286           0       515.668152   1924.500366  -8875.000977     79.211670
    8287           0       515.668152   1924.500366  -9125.000000     82.386436
    8288           0       515.668152   1924.500366  -9374.998047     85.591187
    8289           0       515.668152   1924.500366  -9625.000000     88.861160
    8290           0       515.668152   1924.500366  -9875.000000     92.146118
    8291           0       515.668152   1924.500366  -10125.00000     95.511559
    8292           0       515.668152   1924.500366  -10375.00000     98.868538
    8293           0       515.668152   1924.500366  -10624.99804    102.333687
    8294           0       515.668152   1924.500366  -10875.00195    105.750557
    8295           0       515.668152   1924.500366  -11125.00195    109.327682
    8296           0       515.668152   1924.500366  -11375.00000    112.784958
    8297           0       515.668152   1924.500366  -11625.00000    116.499542
    8298           0       515.668152   1924.500366  -11875.00000    119.966064
    8299           0       515.668152   1924.500366  -12125.00000    123.834732
    8300           0       515.668152   1924.500366  -12375.00000    127.398087
    8301           0       515.668152   1924.500366  -12625.00000    131.073334
    8302           0       515.668152   1924.500366  -12874.99804    135.091339
    8303           0       515.668152   1924.500366  -13124.99609    141.112991
    8304           0       515.668152   1924.500366  -13374.99804    131.939194
    8305           0       403.420227   1954.577148   -124.999992     14.593369
    8306           0       403.420227   1954.577148   -375.000000     14.740666
    8307           0       403.420227   1954.577148   -625.000000     13.448995
    8308           0       403.420227   1954.577148   -874.999939     13.133166
    8309           0       403.420227   1954.577148  -1125.000000     12.608380
    8310           0       403.420227   1954.577148  -1375.000122     12.589724
    8311           0       403.420227   1954.577148  -1625.000000     12.557680
    8312           0       403.420227   1954.577148  -1874.999756     12.978869
    8313           0       403.420227   1954.577148  -2125.000000     13.474662
    8314           0       403.420227   1954.577148  -2375.000000     14.332267
    8315           0       403.420227   1954.577148  -2625.000000     15.295518
    8316           0       403.420227   1954.577148  -2874.999756     16.521210
    8317           0       403.420227   1954.577148  -3125.000000     17.850414
    8318           0       403.420227   1954.577148  -3375.000244     19.365108
    8319           0       403.420227   1954.577148  -3625.000000     20.973305
    8320           0       403.420227   1954.577148  -3875.000000     22.718088
    8321           0       403.420227   1954.577148  -4125.000000     24.548429
    8322           0       403.420227   1954.577148  -4375.000000     26.487415
    8323           0       403.420227   1954.577148  -4625.000000     28.507967
    8324           0       403.420227   1954.577148  -4875.000000     30.622612
    8325           0       403.420227   1954.577148  -5125.000000     32.818062
    8326           0       403.420227   1954.577148  -5375.000000     35.100777
    8327           0       403.420227   1954.577148  -5625.000000     37.465366
    8328           0       403.420227   1954.577148  -5875.000488     39.914616
    8329           0       403.420227   1954.577148  -6125.000488     42.446495
    8330           0       403.420227   1954.577148  -6375.000000     45.062107
    8331           0       403.420227   1954.577148  -6625.000000     47.760811
    8332           0       403.420227   1954.577148  -6875.000000     50.541943
    8333           0       403.420197   1954.577148  -7124.999512     53.404057
    8334           0       403.420197   1954.577148  -7374.999023     56.347305
    8335           0       403.420197   1954.577148  -7625.000000     59.367558
    8336           0       403.420197   1954.577148  -7875.000000     62.465954
    8337           0       403.420197   1954.577148  -8125.000000     65.635223
    8338           0       403.420197   1954.577148  -8375.000000     68.879425
    8339           0       403.420197   1954.577148  -8625.000000     72.186935
    8340           0       403.420197   1954.577148  -8875.000000     75.565376
    8341           0       403.420197   1954.577148  -9125.000000     78.998032
    8342           0       403.420197   1954.577148  -9375.000000     82.500526
    8343           0       403.420197   1954.577148  -9625.000000     86.045387
    8344           0       403.420197   1954.577148  -9875.000000     89.661873
    8345           0       403.420197   1954.577148  -10124.99902     93.305603
    8346           0       403.420197   1954.577148  -10374.99902     97.031181
    8347           0       403.420197   1954.577148  -10625.00000    100.758255
    8348           0       403.420197   1954.577148  -10875.00000    104.592834
    8349           0       403.420197   1954.577148  -11125.00000    108.385109
    8350           0       403.420197   1954.577148  -11375.00000    112.337395
    8351           0       403.420197   1954.577148  -11625.00000    116.170021
    8352           0       403.420197   1954.577148  -11875.00000    120.253349
    8353           0       403.420197   1954.577148  -12125.00000    124.119652
    8354           0       403.420197   1954.577148  -12374.99902    128.336243
    8355           0       403.420197   1954.577148  -12625.00000    131.953705
    8356           0       403.420197   1954.577148  -12874.99902    137.859497
    8357           0       403.420197   1954.577148  -13124.99902    137.774490
    8358           0       403.420197   1954.577148  -13374.99902    140.450500
    8359           0       289.413513   1974.679565   -124.999985     14.953205
    8360           0       289.413513   1974.679565   -375.000000     14.493215
    8361           0       289.413513   1974.679565   -624.999939     14.653355
    8362           0       289.413513   1974.679565   -875.000000     13.983485
    8363           0       289.413513   1974.679565  -1125.000000     14.024173
    8364           0       289.413513   1974.679565  -1375.000122     13.872487
    8365           0       289.413513   1974.679565  -1625.000000     14.082730
    8366           0       289.413513   1974.679565  -1874.999756     14.338740
    8367           0       289.413513   1974.679565  -2125.000000     14.841361
    8368           0       289.413513   1974.679565  -2375.000244     15.469746
    8369           0       289.413513   1974.679565  -2624.999756     16.284826
    8370           0       289.413513   1974.679565  -2874.999512     17.242939
    8371           0       289.413513   1974.679565  -3124.999756     18.350536
    8372           0       289.413513   1974.679565  -3375.000244     19.593126
    8373           0       289.413513   1974.679565  -3625.000244     20.961752
    8374           0       289.413513   1974.679565  -3875.000244     22.452639
    8375           0       289.413513   1974.679565  -4125.000000     24.055830
    8376           0       289.413513   1974.679565  -4375.000000     25.771290
    8377           0       289.413513   1974.679565  -4625.000000     27.592211
    8378           0       289.413513   1974.679565  -4875.000000     29.519613
    8379           0       289.413513   1974.679565  -5124.999512     31.550112
    8380           0       289.413513   1974.679565  -5374.999512     33.684757
    8381           0       289.413513   1974.679565  -5625.000000     35.922474
    8382           0       289.413513   1974.679565  -5875.000488     38.263702
    8383           0       289.413513   1974.679565  -6125.000977     40.708092
    8384           0       289.413513   1974.679565  -6375.000488     43.255943
    8385           0       289.413513   1974.679565  -6625.000000     45.906448
    8386           0       289.413513   1974.679565  -6875.000488     48.659122
    8387           0       289.413513   1974.679565  -7124.999512     51.511463
    8388           0       289.413513   1974.679565  -7374.999023     54.463989
    8389           0       289.413513   1974.679565  -7625.000000     57.510868
    8390           0       289.413513   1974.679565  -7875.000000     60.653957
    8391           0       289.413513   1974.679565  -8124.999023     63.883663
    8392           0       289.413513   1974.679565  -8374.999023     67.205246
    8393           0       289.413513   1974.679565  -8625.000000     70.603737
    8394           0       289.413513   1974.679565  -8875.000977     74.089638
    8395           0       289.413513   1974.679565  -9125.000000     77.640358
    8396           0       289.413513   1974.679565  -9374.999023     81.276833
    8397           0       289.413513   1974.679565  -9625.000000     84.962875
    8398           0       289.413513   1974.679565  -9875.000000     88.736954
    8399           0       289.413513   1974.679565  -10125.00000     92.540543
    8400           0       289.413513   1974.679565  -10375.00000     96.443329
    8401           0       289.413513   1974.679565  -10624.99902    100.344299
    8402           0       289.413544   1974.679565  -10875.00097    104.371674
    8403           0       289.413544   1974.679565  -11125.00097    108.347374
    8404           0       289.413544   1974.679565  -11375.00000    112.503220
    8405           0       289.413544   1974.679565  -11625.00000    116.525620
    8406           0       289.413544   1974.679565  -11875.00000    120.815758
    8407           0       289.413544   1974.679565  -12125.00000    124.882080
    8408           0       289.413544   1974.679565  -12374.99902    129.291611
    8409           0       289.413544   1974.679565  -12625.00000    133.110809
    8410           0       289.413544   1974.679565  -12874.99902    139.326141
    8411           0       289.413544   1974.679565  -13124.99804    138.914505
    8412           0       289.413513   1974.679565  -13374.99902    143.113449
    8413           0       173.648041   1984.807617   -124.999985     15.936402
    8414           0       173.648041   1984.807617   -374.999969     16.554462
    8415           0       173.648041   1984.807617   -624.999939     15.988359
    8416           0       173.648041   1984.807617   -874.999878     15.995409
    8417           0       173.648041   1984.807617  -1124.999878     16.001610
    8418           0       173.648041   1984.807617  -1375.000244     16.108215
    8419           0       173.648041   1984.807617  -1625.000000     16.380913
    8420           0       173.648041   1984.807617  -1874.999512     16.716488
    8421           0       173.648041   1984.807617  -2125.000244     17.234930
    8422           0       173.648041   1984.807617  -2375.000244     17.823975
    8423           0       173.648041   1984.807617  -2624.999756     18.585571
    8424           0       173.648056   1984.807617  -2874.999512     19.429934
    8425           0       173.648056   1984.807617  -3124.999512     20.429447
    8426           0       173.648056   1984.807617  -3375.000488     21.521774
    8427           0       173.648056   1984.807617  -3625.000488     22.753206
    8428           0       173.648056   1984.807617  -3875.000244     24.084534
    8429           0       173.648056   1984.807617  -4125.000488     25.543476
    8430           0       173.648056   1984.807617  -4375.000488     27.107073
    8431           0       173.648056   1984.807617  -4625.000488     28.791550
    8432           0       173.648056   1984.807617  -4874.999512     30.583902
    8433           0       173.648056   1984.807617  -5124.999512     32.493858
    8434           0       173.648056   1984.807617  -5374.999023     34.513966
    8435           0       173.648056   1984.807617  -5625.000000     36.650330
    8436           0       173.648056   1984.807617  -5875.000977     38.898136
    8437           0       173.648056   1984.807617  -6125.000977     41.261116
    8438           0       173.648056   1984.807617  -6375.000000     43.735310
    8439           0       173.648056   1984.807617  -6625.000000     46.323643
    8440           0       173.648056   1984.807617  -6875.000977     49.021126
    8441           0       173.648041   1984.807617  -7124.999023     51.829895
    8442           0       173.648041   1984.807617  -7374.998535     54.744164
    8443           0       173.648041   1984.807617  -7625.000000     57.765865
    8444           0       173.648041   1984.807617  -7875.000000     60.886623
    8445           0       173.648041   1984.807617  -8124.999023     64.110077
    8446           0       173.648041   1984.807617  -8374.999023     67.423904
    8447           0       173.648041   1984.807617  -8625.000000     70.836525
    8448           0       173.648041   1984.807617  -8875.000977     74.327377
    8449           0       173.648041   1984.807617  -9125.000000     77.914322
    8450           0       173.648041   1984.807617  -9374.998047     81.564400
    8451           0       173.648041   1984.807617  -9625.000000     85.312523
    8452           0       173.648041   1984.807617  -9875.000000     89.101570
    8453           0       173.648041   1984.807617  -10125.00000     92.998848
    8454           0       173.648041   1984.807617  -10375.00000     96.905647
    8455           0       173.648041   1984.807617  -10624.99804    100.943810
    8456           0       173.648056   1984.807617  -10875.00195    104.942551
    8457           0       173.648056   1984.807617  -11125.00195    109.121994
    8458           0       173.648056   1984.807617  -11375.00000    113.178703
    8459           0       173.648056   1984.807617  -11625.00000    117.514488
    8460           0       173.648056   1984.807617  -11875.00000    121.583038
    8461           0       173.648056   1984.807617  -12125.00000    126.082962
    8462           0       173.648056   1984.807617  -12375.00000    130.241058
    8463           0       173.648056   1984.807617  -12625.00000    134.527405
    8464           0       173.648056   1984.807617  -12874.99804    139.170547
    8465           0       173.648056   1984.807617  -13124.99609    145.798309
    8466           0       173.648041   1984.807617  -13374.99804    136.798599
    8467           0        57.882576   1994.935791   -124.999992     17.026257
    8468           0        57.882576   1994.935791   -375.000000     16.940359
    8469           0        57.882576   1994.935791   -625.000000     16.175997
    8470           0        57.882576   1994.935791   -874.999939     16.333027
    8471           0        57.882576   1994.935791  -1125.000000     16.086576
    8472           0        57.882576   1994.935791  -1375.000122     16.253595
    8473           0        57.882576   1994.935791  -1625.000000     16.280893
    8474           0        57.882576   1994.935791  -1874.999756     16.598532
    8475           0        57.882576   1994.935791  -2125.000000     16.879847
    8476           0        57.882576   1994.935791  -2375.000000     17.391064
    8477           0        57.882576   1994.935791  -2625.000000     17.933300
    8478           0        57.882576   1994.935791  -2874.999756     18.664986
    8479           0        57.882576   1994.935791  -3125.000000     19.469765
    8480           0        57.882576   1994.935791  -3375.000244     20.437523
    8481           0        57.882576   1994.935791  -3625.000000     21.502161
    8482           0        57.882576   1994.935791  -3875.000000     22.713013
    8483           0        57.882576   1994.935791  -4125.000000     24.033243
    8484           0        57.882576   1994.935791  -4375.000000     25.489067
    8485           0        57.882576   1994.935791  -4625.000000     27.060461
    8486           0        57.882576   1994.935791  -4875.000000     28.760696
    8487           0        57.882576   1994.935791  -5125.000000     30.579443
    8488           0        57.882576   1994.935791  -5375.000000     32.522572
    8489           0        57.882576   1994.935791  -5625.000000     34.585434
    8490           0        57.882576   1994.935791  -5875.000488     36.769775
    8491           0        57.882576   1994.935791  -6125.000488     39.073406
    8492           0        57.882576   1994.935791  -6375.000000     41.496357
    8493           0        57.882576   1994.935791  -6625.000000     44.037628
    8494           0        57.882568   1994.935791  -6875.000000     46.695793
    8495           0        57.882565   1994.935791  -7124.999512     49.469021
    8496           0        57.882565   1994.935791  -7374.999023     52.357170
    8497           0        57.882565   1994.935791  -7625.000000     55.355728
    8498           0        57.882565   1994.935791  -7875.000000     58.465813
    8499           0        57.882565   1994.935791  -8125.000000     61.679596
    8500           0        57.882565   1994.935791  -8375.000000     65.001236
    8501           0        57.882565   1994.935791  -8625.000000     68.418098
    8502           0        57.882565   1994.935791  -8875.000000     71.937920
    8503           0        57.882565   1994.935791  -9125.000000     75.541985
    8504           0        57.882565   1994.935791  -9375.000000     79.245972
    8505           0        57.882565   1994.935791  -9625.000000     83.019463
    8506           0        57.882565   1994.935791  -9875.000000     86.891396
    8507           0        57.882565   1994.935791  -10124.99902     90.813774
    8508           0        57.882565   1994.935791  -10374.99902     94.840195
    8509           0        57.882565   1994.935791  -10625.00000     98.887047
    8510           0        57.882565   1994.935791  -10875.00000    103.057243
    8511           0        57.882565   1994.935791  -11125.00000    107.201431
    8512           0        57.882565   1994.935791  -11375.00000    111.510979
    8513           0        57.882565   1994.935791  -11625.00000    115.720528
    8514           0        57.882565   1994.935791  -11875.00000    120.167130
    8515           0        57.882565   1994.935791  -12125.00000    124.428406
    8516           0        57.882565   1994.935791  -12374.99902    129.010712
    8517           0        57.882565   1994.935791  -12625.00000    133.004532
    8518           0        57.882565   1994.935791  -12874.99902    139.250061
    8519           0        57.882565   1994.935791  -13124.99902    139.932541
    8520           0        57.882568   1994.935791  -13374.99902    141.658646
    8521           0       -57.882874   1994.935791   -124.999985     17.452259
    8522           0       -57.882874   1994.935791   -375.000000     17.134819
    8523           0       -57.882874   1994.935791   -624.999939     17.501001
    8524           0       -57.882874   1994.935791   -875.000000     17.044165
    8525           0       -57.882874   1994.935791  -1125.000000     17.193062
    8526           0       -57.882874   1994.935791  -1375.000122     17.088581
    8527           0       -57.882874   1994.935791  -1625.000000     17.286684
    8528           0       -57.882874   1994.935791  -1874.999756     17.437481
    8529           0       -57.882874   1994.935791  -2125.000000     17.785849
    8530           0       -57.882874   1994.935791  -2375.000244     18.181459
    8531           0       -57.882874   1994.935791  -2624.999756     18.729183
    8532           0       -57.882874   1994.935791  -2874.999512     19.371183
    8533           0       -57.882874   1994.935791  -3124.999756     20.147209
    8534           0       -57.882874   1994.935791  -3375.000244     21.038778
    8535           0       -57.882874   1994.935791  -3625.000244     22.057796
    8536           0       -57.882874   1994.935791  -3875.000244     23.200748
    8537           0       -57.882874   1994.935791  -4125.000000     24.468731
    8538           0       -57.882874   1994.935791  -4375.000000     25.862778
    8539           0       -57.882874   1994.935791  -4625.000000     27.380766
    8540           0       -57.882874   1994.935791  -4875.000000     29.024151
    8541           0       -57.882874   1994.935791  -5124.999512     30.790718
    8542           0       -57.882874   1994.935791  -5374.999512     32.681057
    8543           0       -57.882874   1994.935791  -5625.000000     34.693703
    8544           0       -57.882874   1994.935791  -5875.000488     36.828083
    8545           0       -57.882874   1994.935791  -6125.000977     39.083160
    8546           0       -57.882874   1994.935791  -6375.000488     41.458179
    8547           0       -57.882874   1994.935791  -6625.000000     43.951878
    8548           0       -57.882881   1994.935791  -6875.000488     46.563194
    8549           0       -57.882881   1994.935791  -7124.999512     49.289452
    8550           0       -57.882881   1994.935791  -7374.999023     52.131084
    8551           0       -57.882881   1994.935791  -7625.000000     55.082924
    8552           0       -57.882881   1994.935791  -7875.000000     58.146717
    8553           0       -57.882881   1994.935791  -8124.999023     61.313778
    8554           0       -57.882881   1994.935791  -8374.999023     64.589348
    8555           0       -57.882881   1994.935791  -8625.000000     67.959450
    8556           0       -57.882881   1994.935791  -8875.000977     71.433922
    8557           0       -57.882881   1994.935791  -9125.000000     74.991287
    8558           0       -57.882881   1994.935791  -9374.999023     78.650833
    8559           0       -57.882881   1994.935791  -9625.000000     82.377502
    8560           0       -57.882881   1994.935791  -9875.000000     86.207001
    8561           0       -57.882881   1994.935791  -10125.00000     90.081985
    8562           0       -57.882881   1994.935791  -10375.00000     94.068672
    8563           0       -57.882881   1994.935791  -10624.99902     98.066757
    8564           0       -57.882881   1994.935791  -10875.00097    102.201782
    8565           0       -57.882885   1994.935791  -11125.00097    106.293495
    8566           0       -57.882889   1994.935791  -11375.00000    110.576271
    8567           0       -57.882889   1994.935791  -11625.00000    114.724464
    8568           0       -57.882889   1994.935791  -11875.00000    119.158241
    8569           0       -57.882889   1994.935791  -12125.00000    123.351364
    8570           0       -57.882889   1994.935791  -12374.99902    127.907417
    8571           0       -57.882889   1994.935791  -12625.00000    131.872559
    8572           0       -57.882889   1994.935791  -12874.99902    138.263885
    8573           0       -57.882889   1994.935791  -13124.99804    137.560822
    8574           0       -57.882881   1994.935791  -13374.99902    143.361694
    8575           0      -173.648315   1984.807617   -124.999985     18.864788
    8576           0      -173.648315   1984.807617   -374.999969     19.302185
    8577           0      -173.648315   1984.807617   -624.999939     18.848948
    8578           0      -173.648315   1984.807617   -874.999878     18.844164
    8579           0      -173.648300   1984.807617  -1124.999878     18.809437
    8580           0      -173.648300   1984.807617  -1375.000244     18.891340
    8581           0      -173.648300   1984.807617  -1625.000000     19.066933
    8582           0      -173.648300   1984.807617  -1874.999512     19.318167
    8583           0      -173.648300   1984.807617  -2125.000244     19.703146
    8584           0      -173.648300   1984.807617  -2375.000244     20.159740
    8585           0      -173.648300   1984.807617  -2624.999756     20.760620
    8586           0      -173.648300   1984.807617  -2874.999512     21.443001
    8587           0      -173.648300   1984.807617  -3124.999512     22.267101
    8588           0      -173.648300   1984.807617  -3375.000488     23.184591
    8589           0      -173.648300   1984.807617  -3625.000488     24.237503
    8590           0      -173.648300   1984.807617  -3875.000244     25.393269
    8591           0      -173.648285   1984.807617  -4125.000488     26.678465
    8592           0      -173.648285   1984.807617  -4375.000488     28.072815
    8593           0      -173.648285   1984.807617  -4625.000488     29.592247
    8594           0      -173.648285   1984.807617  -4874.999512     31.224518
    8595           0      -173.648285   1984.807617  -5124.999512     32.978992
    8596           0      -173.648285   1984.807617  -5374.999023     34.848080
    8597           0      -173.648285   1984.807617  -5625.000000     36.837410
    8598           0      -173.648285   1984.807617  -5875.000977     38.941624
    8599           0      -173.648285   1984.807617  -6125.000977     41.163811
    8600           0      -173.648285   1984.807617  -6375.000000     43.499573
    8601           0      -173.648285   1984.807617  -6625.000000     45.950886
    8602           0      -173.648285   1984.807617  -6875.000977     48.512810
    8603           0      -173.648285   1984.807617  -7124.999023     51.186630
    8604           0      -173.648285   1984.807617  -7374.998535     53.966373
    8605           0      -173.648285   1984.807617  -7625.000000     56.853905
    8606           0      -173.648285   1984.807617  -7875.000000     59.840630
    8607           0      -173.648285   1984.807617  -8124.999023     62.930004
    8608           0      -173.648270   1984.807617  -8374.999023     66.110207
    8609           0      -173.648254   1984.807617  -8625.000000     69.389061
    8610           0      -173.648254   1984.807617  -8875.000977     72.747101
    8611           0      -173.648254   1984.807617  -9125.000000     76.201118
    8612           0      -173.648254   1984.807617  -9374.998047     79.719971
    8613           0      -173.648254   1984.807617  -9625.000000     83.336472
    8614           0      -173.648254   1984.807617  -9875.000000     86.996712
    8615           0      -173.648254   1984.807617  -10125.00000     90.764084
    8616           0      -173.648254   1984.807617  -10375.00000     94.545456
    8617           0      -173.648254   1984.807617  -10624.99804     98.455437
    8618           0      -173.648254   1984.807617  -10875.00195    102.333328
    8619           0      -173.648254   1984.807617  -11125.00195    106.385658
    8620           0      -173.648254   1984.807617  -11375.00000    110.328018
    8621           0      -173.648254   1984.807617  -11625.00000    114.535881
    8622           0      -173.648254   1984.807617  -11875.00000    118.499420
    8623           0      -173.648254   1984.807617  -12125.00000    122.868584
    8624           0      -173.648254   1984.807617  -12375.00000    126.928528
    8625           0      -173.648239   1984.807617  -12625.00000    131.096893
    8626           0      -173.648239   1984.807617  -12874.99804    135.630081
    8627           0      -173.648239   1984.807617  -13124.99609    142.047363
    8628           0      -173.648285   1984.807617  -13374.99804    133.470200
    8629           0      -289.413757   1974.679443   -124.999992     20.584047
    8630           0      -289.413757   1974.679443   -375.000000     20.435894
    8631           0      -289.413757   1974.679443   -625.000000     19.538185
    8632           0      -289.413757   1974.679443   -874.999939     19.615610
    8633           0      -289.413757   1974.679443  -1125.000000     19.287325
    8634           0      -289.413757   1974.679443  -1375.000122     19.337631
    8635           0      -289.413757   1974.679443  -1625.000000     19.282955
    8636           0      -289.413757   1974.679443  -1874.999756     19.496143
    8637           0      -289.413757   1974.679443  -2125.000000     19.691792
    8638           0      -289.413757   1974.679443  -2375.000000     20.112961
    8639           0      -289.413757   1974.679443  -2625.000000     20.575407
    8640           0      -289.413757   1974.679443  -2874.999756     21.229654
    8641           0      -289.413757   1974.679443  -3125.000000     21.963146
    8642           0      -289.413757   1974.679443  -3375.000244     22.862654
    8643           0      -289.413757   1974.679443  -3625.000000     23.861864
    8644           0      -289.413727   1974.679443  -3875.000000     25.008108
    8645           0      -289.413727   1974.679443  -4125.000000     26.263258
    8646           0      -289.413727   1974.679443  -4375.000000     27.651871
    8647           0      -289.413727   1974.679443  -4625.000000     29.152599
    8648           0      -289.413727   1974.679443  -4875.000000     30.777481
    8649           0      -289.413727   1974.679443  -5125.000000     32.515091
    8650           0      -289.413727   1974.679443  -5375.000000     34.370525
    8651           0      -289.413727   1974.679443  -5625.000000     36.338139
    8652           0      -289.413727   1974.679443  -5875.000488     38.419266
    8653           0      -289.413727   1974.679443  -6125.000488     40.610638
    8654           0      -289.413727   1974.679443  -6375.000000     42.912006
    8655           0      -289.413727   1974.679443  -6625.000000     45.320938
    8656           0      -289.413727   1974.679443  -6875.000000     47.835865
    8657           0      -289.413727   1974.679443  -7124.999512     50.453934
    8658           0      -289.413727   1974.679443  -7374.999023     53.173786
    8659           0      -289.413727   1974.679443  -7625.000000     55.990517
    8660           0      -289.413727   1974.679443  -7875.000000     58.904202
    8661           0      -289.413727   1974.679443  -8125.000000     61.906647
    8662           0      -289.413696   1974.679443  -8375.000000     65.001236
    8663           0      -289.413696   1974.679443  -8625.000000     68.175499
    8664           0      -289.413696   1974.679443  -8875.000000     71.436684
    8665           0      -289.413696   1974.679443  -9125.000000     74.766953
    8666           0      -289.413696   1974.679443  -9375.000000     78.181610
    8667           0      -289.413696   1974.679443  -9625.000000     81.652496
    8668           0      -289.413696   1974.679443  -9875.000000     85.207314
    8669           0      -289.413696   1974.679443  -10124.99902     88.802834
    8670           0      -289.413696   1974.679443  -10374.99902     92.488594
    8671           0      -289.413696   1974.679443  -10625.00000     96.191032
    8672           0      -289.413696   1974.679443  -10875.00000    100.001419
    8673           0      -289.413696   1974.679443  -11125.00000    103.792427
    8674           0      -289.413696   1974.679443  -11375.00000    107.726105
    8675           0      -289.413666   1974.679443  -11625.00000    111.585625
    8676           0      -289.413666   1974.679443  -11875.00000    115.640411
    8677           0      -289.413666   1974.679443  -12125.00000    119.564964
    8678           0      -289.413666   1974.679443  -12374.99902    123.753632
    8679           0      -289.413666   1974.679443  -12625.00000    127.424194
    8680           0      -289.413666   1974.679443  -12874.99902    133.126083
    8681           0      -289.413666   1974.679443  -13124.99902    134.242905
    8682           0      -289.413727   1974.679443  -13374.99902    134.191315
    8683           0      -403.420471   1954.577026   -124.999985     22.545456
    8684           0      -403.420471   1954.577026   -375.000000     21.269777
    8685           0      -403.420471   1954.577026   -624.999939     21.643137
    8686           0      -403.420471   1954.577026   -875.000000     20.936634
    8687           0      -403.420471   1954.577026  -1125.000000     20.913960
    8688           0      -403.420471   1954.577026  -1375.000122     20.600626
    8689           0      -403.420471   1954.577026  -1625.000000     20.675009
    8690           0      -403.420471   1954.577026  -1874.999756     20.671518
    8691           0      -403.420471   1954.577026  -2125.000000     20.936266
    8692           0      -403.420471   1954.577026  -2375.000244     21.246595
    8693           0      -403.420471   1954.577026  -2624.999756     21.758381
    8694           0      -403.420471   1954.577026  -2874.999512     22.375984
    8695           0      -403.420471   1954.577026  -3124.999756     23.159422
    8696           0      -403.420471   1954.577026  -3375.000244     24.069906
    8697           0      -403.420471   1954.577026  -3625.000244     25.124086
    8698           0      -403.420471   1954.577026  -3875.000244     26.306843
    8699           0      -403.420471   1954.577026  -4125.000000     27.617548
    8700           0      -403.420471   1954.577026  -4375.000000     29.050320
    8701           0      -403.420471   1954.577026  -4625.000000     30.599480
    8702           0      -403.420471   1954.577026  -4875.000000     32.262383
    8703           0      -403.420471   1954.577026  -5124.999512     34.033344
    8704           0      -403.420471   1954.577026  -5374.999512     35.910572
    8705           0      -403.420471   1954.577026  -5625.000000     37.889748
    8706           0      -403.420471   1954.577026  -5875.000488     39.968826
    8707           0      -403.420471   1954.577026  -6125.000977     42.144638
    8708           0      -403.420471   1954.577026  -6375.000488     44.415340
    8709           0      -403.420471   1954.577026  -6625.000000     46.778156
    8710           0      -403.420471   1954.577026  -6875.000488     49.230911
    8711           0      -403.420471   1954.577026  -7124.999512     51.770313
    8712           0      -403.420471   1954.577026  -7374.999023     54.395512
    8713           0      -403.420471   1954.577026  -7625.000000     57.101105
    8714           0      -403.420471   1954.577026  -7875.000000     59.887920
    8715           0      -403.420471   1954.577026  -8124.999023     62.748070
    8716           0      -403.420471   1954.577026  -8374.999023     65.685349
    8717           0      -403.420471   1954.577026  -8625.000000     68.688194
    8718           0      -403.420471   1954.577026  -8875.000977     71.764450
    8719           0      -403.420471   1954.577026  -9125.000000     74.897179
    8720           0      -403.420471   1954.577026  -9374.999023     78.102539
    8721           0      -403.420471   1954.577026  -9625.000000     81.352882
    8722           0      -403.420471   1954.577026  -9875.000000     84.678734
    8723           0      -403.420471   1954.577026  -10125.00000     88.034096
    8724           0      -403.420471   1954.577026  -10375.00000     91.476166
    8725           0      -403.420471   1954.577026  -10624.99902     94.921646
    8726           0      -403.420471   1954.577026  -10875.00097     98.480965
    8727           0      -403.420471   1954.577026  -11125.00097    101.998230
    8728           0      -403.420471   1954.577026  -11375.00000    105.684937
    8729           0      -403.420471   1954.577026  -11625.00000    109.247559
    8730           0      -403.420471   1954.577026  -11875.00000    113.077347
    8731           0      -403.420471   1954.577026  -12125.00000    116.682343
    8732           0      -403.420471   1954.577026  -12374.99902    120.631180
    8733           0      -403.420471   1954.577026  -12625.00000    124.057739
    8734           0      -403.420471   1954.577026  -12874.99902    129.741470
    8735           0      -403.420471   1954.577026  -13124.99804    128.479019
    8736           0      -403.420471   1954.577026  -13374.99902    134.923065
    8737           0      -515.668457   1924.500244   -124.999985     24.370127
    8738           0      -515.668457   1924.500244   -374.999969     24.581882
    8739           0      -515.668457   1924.500244   -624.999939     23.637154
    8740           0      -515.668457   1924.500244   -874.999878     23.444386
    8741           0      -515.668457   1924.500244  -1124.999878     23.060312
    8742           0      -515.668457   1924.500244  -1375.000244     22.990967
    8743           0      -515.668457   1924.500244  -1625.000000     22.961687
    8744           0      -515.668457   1924.500244  -1874.999512     23.135225
    8745           0      -515.668457   1924.500244  -2125.000244     23.456257
    8746           0      -515.668457   1924.500244  -2375.000244     23.933748
    8747           0      -515.668457   1924.500244  -2624.999756     24.592724
    8748           0      -515.668457   1924.500244  -2874.999512     25.389193
    8749           0      -515.668457   1924.500244  -3124.999512     26.361301
    8750           0      -515.668457   1924.500244  -3375.000488     27.457739
    8751           0      -515.668457   1924.500244  -3625.000488     28.707739
    8752           0      -515.668457   1924.500244  -3875.000244     30.068636
    8753           0      -515.668457   1924.500244  -4125.000488     31.558039
    8754           0      -515.668457   1924.500244  -4375.000488     33.144932
    8755           0      -515.668457   1924.500244  -4625.000488     34.838375
    8756           0      -515.668457   1924.500244  -4874.999512     36.617069
    8757           0      -515.668457   1924.500244  -5124.999512     38.485027
    8758           0      -515.668457   1924.500244  -5374.999023     40.427876
    8759           0      -515.668457   1924.500244  -5625.000000     42.447369
    8760           0      -515.668457   1924.500244  -5875.000977     44.533585
    8761           0      -515.668457   1924.500244  -6125.000977     46.687283
    8762           0      -515.668457   1924.500244  -6375.000000     48.901432
    8763           0      -515.668457   1924.500244  -6625.000000     51.177429
    8764           0      -515.668457   1924.500244  -6875.000977     53.509556
    8765           0      -515.668457   1924.500244  -7124.999023     55.899586
    8766           0      -515.668457   1924.500244  -7374.998535     58.343014
    8767           0      -515.668457   1924.500244  -7625.000000     60.842560
    8768           0      -515.668457   1924.500244  -7875.000000     63.392727
    8769           0      -515.668457   1924.500244  -8124.999023     65.998405
    8770           0      -515.668457   1924.500244  -8374.999023     68.651604
    8771           0      -515.668457   1924.500244  -8625.000000     71.361351
    8772           0      -515.668457   1924.500244  -8875.000977     74.113586
    8773           0      -515.668457   1924.500244  -9125.000000     76.924843
    8774           0      -515.668457   1924.500244  -9374.998047     79.771477
    8775           0      -515.668457   1924.500244  -9625.000000     82.683380
    8776           0      -515.668457   1924.500244  -9875.000000     85.618347
    8777           0      -515.668457   1924.500244  -10125.00000     88.631302
    8778           0      -515.668457   1924.500244  -10375.00000     91.648438
    8779           0      -515.668457   1924.500244  -10624.99804     94.765877
    8780           0      -515.668457   1924.500244  -10875.00195     97.855980
    8781           0      -515.668457   1924.500244  -11125.00195    101.087746
    8782           0      -515.668457   1924.500244  -11375.00000    104.235924
    8783           0      -515.668457   1924.500244  -11625.00000    107.601799
    8784           0      -515.668457   1924.500244  -11875.00000    110.785194
    8785           0      -515.668457   1924.500244  -12125.00000    114.294823
    8786           0      -515.668457   1924.500244  -12375.00000    117.593964
    8787           0      -515.668457   1924.500244  -12625.00000    120.945953
    8788           0      -515.668457   1924.500244  -12874.99804    124.661919
    8789           0      -515.668457   1924.500244  -13124.99609    130.086288
    8790           0      -515.668457   1924.500244  -13374.99804    122.188210
    8791           0      -627.916382   1894.423340   -124.999992     27.580521
    8792           0      -627.916382   1894.423340   -375.000000     27.554064
    8793           0      -627.916382   1894.423340   -625.000000     26.200449
    8794           0      -627.916382   1894.423340   -874.999939     25.721525
    8795           0      -627.916382   1894.423340  -1125.000000     25.034531
    8796           0      -627.916382   1894.423340  -1375.000122     24.659676
    8797           0      -627.916382   1894.423340  -1625.000000     24.305876
    8798           0      -627.916382   1894.423340  -1874.999756     24.247585
    8799           0      -627.916382   1894.423340  -2125.000000     24.266483
    8800           0      -627.916382   1894.423340  -2375.000000     24.581181
    8801           0      -627.916382   1894.423340  -2625.000000     25.017801
    8802           0      -627.916382   1894.423340  -2874.999756     25.722073
    8803           0      -627.916382   1894.423340  -3125.000000     26.568884
    8804           0      -627.916382   1894.423340  -3375.000244     27.639969
    8805           0      -627.916382   1894.423340  -3625.000000     28.849665
    8806           0      -627.916382   1894.423340  -3875.000000     30.236841
    8807           0      -627.916382   1894.423340  -4125.000000     31.744617
    8808           0      -627.916382   1894.423340  -4375.000000     33.387577
    8809           0      -627.916382   1894.423340  -4625.000000     35.128662
    8810           0      -627.916382   1894.423340  -4875.000000     36.970322
    8811           0      -627.916443   1894.423340  -5125.000000     38.888744
    8812           0      -627.916443   1894.423340  -5375.000000     40.881016
    8813           0      -627.916443   1894.423340  -5625.000000     42.932163
    8814           0      -627.916443   1894.423340  -5875.000488     45.037846
    8815           0      -627.916443   1894.423340  -6125.000488     47.188618
    8816           0      -627.916443   1894.423340  -6375.000000     49.381096
    8817           0      -627.916443   1894.423340  -6625.000000     51.610023
    8818           0      -627.916443   1894.423340  -6875.000000     53.873417
    8819           0      -627.916443   1894.423340  -7124.999512     56.168167
    8820           0      -627.916443   1894.423340  -7374.999023     58.495380
    8821           0      -627.916443   1894.423340  -7625.000000     60.852203
    8822           0      -627.916443   1894.423340  -7875.000000     63.242256
    8823           0      -627.916443   1894.423340  -8125.000000     65.661324
    8824           0      -627.916443   1894.423340  -8375.000000     68.116646
    8825           0      -627.916443   1894.423340  -8625.000000     70.600578
    8826           0      -627.916443   1894.423340  -8875.000000     73.123894
    8827           0      -627.916443   1894.423340  -9125.000000     75.674110
    8828           0      -627.916443   1894.423340  -9375.000000     78.268623
    8829           0      -627.916443   1894.423340  -9625.000000     80.886200
    8830           0      -627.916443   1894.423340  -9875.000000     83.553932
    8831           0      -627.916443   1894.423340  -10124.99902     86.239136
    8832           0      -627.916443   1894.423340  -10374.99902     88.984833
    8833           0      -627.916443   1894.423340  -10625.00000     91.736801
    8834           0      -627.916443   1894.423340  -10875.00000     94.566681
    8835           0      -627.916443   1894.423340  -11125.00000     97.385262
    8836           0      -627.916443   1894.423340  -11375.00000    100.307022
    8837           0      -627.916443   1894.423340  -11625.00000    103.193192
    8838           0      -627.916443   1894.423340  -11875.00000    106.209045
    8839           0      -627.916443   1894.423340  -12125.00000    109.177864
    8840           0      -627.916443   1894.423340  -12374.99902    112.314629
    8841           0      -627.916443   1894.423340  -12625.00000    115.083305
    8842           0      -627.916443   1894.423340  -12874.99902    119.459869
    8843           0      -627.916443   1894.423340  -13124.99902    120.681816
    8844           0      -627.916443   1894.423340  -13374.99902    118.377403
    8845           0      -736.700378   1854.829224   -124.999985     32.487625
    8846           0      -736.700378   1854.829224   -375.000000     29.662769
    8847           0      -736.700378   1854.829224   -624.999939     29.932505
    8848           0      -736.700378   1854.829224   -875.000000     28.521957
    8849           0      -736.700378   1854.829224  -1125.000000     28.021257
    8850           0      -736.700378   1854.829224  -1375.000122     27.181236
    8851           0      -736.700378   1854.829224  -1625.000000     26.877584
    8852           0      -736.700378   1854.829224  -1874.999756     26.487736
    8853           0      -736.700378   1854.829224  -2125.000000     26.509470
    8854           0      -736.700378   1854.829224  -2375.000244     26.619120
    8855           0      -736.700378   1854.829224  -2624.999756     27.052734
    8856           0      -736.700378   1854.829224  -2874.999512     27.657825
    8857           0      -736.700378   1854.829224  -3124.999756     28.524057
    8858           0      -736.700378   1854.829224  -3375.000244     29.577084
    8859           0      -736.700378   1854.829224  -3625.000244     30.835117
    8860           0      -736.700378   1854.829224  -3875.000244     32.257694
    8861           0      -736.700378   1854.829224  -4125.000000     33.833431
    8862           0      -736.700378   1854.829224  -4375.000000     35.537010
    8863           0      -736.700378   1854.829224  -4625.000000     37.348381
    8864           0      -736.700378   1854.829224  -4875.000000     39.249668
    8865           0      -736.700378   1854.829224  -5124.999512     41.221359
    8866           0      -736.700378   1854.829224  -5374.999512     43.250011
    8867           0      -736.700378   1854.829224  -5625.000000     45.319923
    8868           0      -736.700378   1854.829224  -5875.000488     47.421001
    8869           0      -736.700378   1854.829224  -6125.000977     49.542278
    8870           0      -736.700378   1854.829224  -6375.000488     51.677483
    8871           0      -736.700378   1854.829224  -6625.000000     53.820244
    8872           0      -736.700378   1854.829224  -6875.000488     55.967365
    8873           0      -736.700378   1854.829224  -7124.999512     58.116230
    8874           0      -736.700378   1854.829224  -7374.999023     60.267654
    8875           0      -736.700378   1854.829224  -7625.000000     62.420864
    8876           0      -736.700378   1854.829224  -7875.000000     64.579567
    8877           0      -736.700378   1854.829224  -8124.999023     66.743614
    8878           0      -736.700378   1854.829224  -8374.999023     68.919441
    8879           0      -736.700378   1854.829224  -8625.000000     71.105614
    8880           0      -736.700378   1854.829224  -8875.000977     73.310616
    8881           0      -736.700378   1854.829224  -9125.000000     75.530121
    8882           0      -736.700378   1854.829224  -9374.999023     77.776825
    8883           0      -736.700378   1854.829224  -9625.000000     80.039413
    8884           0      -736.700378   1854.829224  -9875.000000     82.338837
    8885           0      -736.700378   1854.829224  -10125.00000     84.651711
    8886           0      -736.700378   1854.829224  -10375.00000     87.015999
    8887           0      -736.700378   1854.829224  -10624.99902     89.382462
    8888           0      -736.700378   1854.829224  -10875.00097     91.826340
    8889           0      -736.700378   1854.829224  -11125.00097     94.244995
    8890           0      -736.700378   1854.829224  -11375.00000     96.789337
    8891           0      -736.700378   1854.829224  -11625.00000     99.249733
    8892           0      -736.700378   1854.829224  -11875.00000    101.919090
    8893           0      -736.700378   1854.829224  -12125.00000    104.430527
    8894           0      -736.700378   1854.829224  -12374.99902    107.205223
    8895           0      -736.700378   1854.829224  -12625.00000    109.614914
    8896           0      -736.700378   1854.829224  -12874.99902    113.880943
    8897           0      -736.700378   1854.829224  -13124.99804    112.036255
    8898           0      -736.700378   1854.829224  -13374.99902    118.101410
    8899           0      -842.020264   1805.717773   -124.999985     34.497814
    8900           0      -842.020264   1805.717773   -374.999969     34.696255
    8901           0      -842.020264   1805.717773   -624.999939     32.894226
    8902           0      -842.020264   1805.717773   -874.999878     32.156429
    8903           0      -842.020264   1805.717773  -1124.999878     31.081980
    8904           0      -842.020264   1805.717773  -1375.000244     30.534613
    8905           0      -842.020264   1805.717773  -1625.000000     29.951775
    8906           0      -842.020264   1805.717773  -1874.999512     29.736923
    8907           0      -842.020264   1805.717773  -2125.000244     29.686472
    8908           0      -842.020264   1805.717773  -2375.000244     29.921717
    8909           0      -842.020264   1805.717773  -2624.999756     30.404947
    8910           0      -842.020203   1805.717773  -2874.999512     31.130526
    8911           0      -842.020203   1805.717773  -3124.999512     32.108543
    8912           0      -842.020203   1805.717773  -3375.000488     33.288353
    8913           0      -842.020203   1805.717773  -3625.000488     34.682316
    8914           0      -842.020203   1805.717773  -3875.000244     36.232235
    8915           0      -842.020203   1805.717773  -4125.000488     37.941765
    8916           0      -842.020203   1805.717773  -4375.000488     39.759747
    8917           0      -842.020203   1805.717773  -4625.000488     41.682243
    8918           0      -842.020203   1805.717773  -4874.999512     43.668602
    8919           0      -842.020203   1805.717773  -5124.999512     45.711029
    8920           0      -842.020203   1805.717773  -5374.999023     47.779011
    8921           0      -842.020203   1805.717773  -5625.000000     49.864559
    8922           0      -842.020203   1805.717773  -5875.000977     51.945766
    8923           0      -842.020203   1805.717773  -6125.000977     54.016598
    8924           0      -842.020203   1805.717773  -6375.000000     56.062634
    8925           0      -842.020203   1805.717773  -6625.000000     58.081696
    8926           0      -842.020203   1805.717773  -6875.000977     60.065430
    8927           0      -842.020203   1805.717773  -7124.999023     62.015575
    8928           0      -842.020203   1805.717773  -7374.998535     63.928970
    8929           0      -842.020203   1805.717773  -7625.000000     65.811287
    8930           0      -842.020203   1805.717773  -7875.000000     67.662369
    8931           0      -842.020203   1805.717773  -8124.999023     69.491623
    8932           0      -842.020203   1805.717773  -8374.999023     71.299644
    8933           0      -842.020203   1805.717773  -8625.000000     73.099846
    8934           0      -842.020203   1805.717773  -8875.000977     74.889740
    8935           0      -842.020203   1805.717773  -9125.000000     76.687706
    8936           0      -842.020203   1805.717773  -9374.998047     78.484741
    8937           0      -842.020203   1805.717773  -9625.000000     80.306984
    8938           0      -842.020203   1805.717773  -9875.000000     82.132423
    8939           0      -842.020203   1805.717773  -10125.00000     84.001869
    8940           0      -842.020203   1805.717773  -10375.00000     85.872314
    8941           0      -842.020203   1805.717773  -10624.99804     87.808685
    8942           0      -842.020142   1805.717773  -10875.00195     89.734627
    8943           0      -842.020142   1805.717773  -11125.00195     91.757484
    8944           0      -842.020142   1805.717773  -11375.00000     93.743156
    8945           0      -842.020142   1805.717773  -11625.00000     95.874062
    8946           0      -842.020142   1805.717773  -11875.00000     97.918861
    8947           0      -842.020142   1805.717773  -12125.00000    100.163544
    8948           0      -842.020142   1805.717773  -12375.00000    102.343941
    8949           0      -842.020142   1805.717773  -12625.00000    104.494576
    8950           0      -842.020142   1805.717773  -12874.99804    106.954750
    8951           0      -842.020142   1805.717773  -13124.99609    110.934601
    8952           0      -842.020264   1805.717773  -13374.99804    104.082924
    8953           0      -947.340088   1756.606201   -124.999992     39.141392
    8954           0      -947.340088   1756.606201   -375.000000     39.238937
    8955           0      -947.340088   1756.606201   -625.000000     37.437222
    8956           0      -947.340088   1756.606201   -874.999939     36.052505
    8957           0      -947.340088   1756.606201  -1125.000000     34.840225
    8958           0      -947.340088   1756.606201  -1375.000122     33.793697
    8959           0      -947.340088   1756.606201  -1625.000000     32.900345
    8960           0      -947.340088   1756.606201  -1874.999756     32.299820
    8961           0      -947.340088   1756.606201  -2125.000000     31.865225
    8962           0      -947.340088   1756.606201  -2375.000000     31.780384
    8963           0      -947.340088   1756.606201  -2625.000000     31.899900
    8964           0      -947.340088   1756.606201  -2874.999756     32.369167
    8965           0      -947.340088   1756.606201  -3125.000000     33.059536
    8966           0      -947.340088   1756.606201  -3375.000244     34.057438
    8967           0      -947.340088   1756.606201  -3625.000000     35.257935
    8968           0      -947.340088   1756.606201  -3875.000000     36.698483
    8969           0      -947.340088   1756.606201  -4125.000000     38.297386
    8970           0      -947.340088   1756.606201  -4375.000000     40.061432
    8971           0      -947.340088   1756.606201  -4625.000000     41.929131
    8972           0      -947.340088   1756.606445  -4875.000000     43.891941
    8973           0      -947.340088   1756.606445  -5125.000000     45.904968
    8974           0      -947.340088   1756.606445  -5375.000000     47.954197
    8975           0      -947.340088   1756.606445  -5625.000000     50.008114
    8976           0      -947.340088   1756.606445  -5875.000488     52.053318
    8977           0      -947.340088   1756.606445  -6125.000488     54.068771
    8978           0      -947.340088   1756.606445  -6375.000000     56.045059
    8979           0      -947.340088   1756.606445  -6625.000000     57.970062
    8980           0      -947.340088   1756.606445  -6875.000000     59.839550
    8981           0      -947.340088   1756.606445  -7124.999512     61.648159
    8982           0      -947.340088   1756.606445  -7374.999023     63.398121
    8983           0      -947.340088   1756.606445  -7625.000000     65.088715
    8984           0      -947.340088   1756.606445  -7875.000000     66.727989
    8985           0      -947.340088   1756.606445  -8125.000000     68.317642
    8986           0      -947.340088   1756.606445  -8375.000000     69.871307
    8987           0      -947.340088   1756.606445  -8625.000000     71.390282
    8988           0      -947.340088   1756.606445  -8875.000000     72.891998
    8989           0      -947.340088   1756.606445  -9125.000000     74.374886
    8990           0      -947.340088   1756.606445  -9375.000000     75.860420
    8991           0      -947.340088   1756.606445  -9625.000000     77.340378
    8992           0      -947.340088   1756.606445  -9875.000000     78.839897
    8993           0      -947.340088   1756.606445  -10124.99902     80.343407
    8994           0      -947.340088   1756.606445  -10374.99902     81.881485
    8995           0      -947.340027   1756.606445  -10625.00000     83.427490
    8996           0      -947.340027   1756.606445  -10875.00000     85.022057
    8997           0      -947.340027   1756.606445  -11125.00000     86.626816
    8998           0      -947.340027   1756.606445  -11375.00000     88.290215
    8999           0      -947.340027   1756.606445  -11625.00000     89.971382
    9000           0      -947.340027   1756.606445  -11875.00000     91.703423
    9001           0      -947.340027   1756.606445  -12125.00000     93.489136
    9002           0      -947.340027   1756.606445  -12374.99902     95.310883
    9003           0      -947.340027   1756.606445  -12625.00000     96.985886
    9004           0      -947.340027   1756.606445  -12874.99902     99.647316
    9005           0      -947.340027   1756.606445  -13124.99902    100.849083
    9006           0      -947.340088   1756.606445  -13374.99902     96.491859
    9007           0     -1047.595947   1698.723511   -124.999985     45.695633
    9008           0     -1047.595947   1698.723511   -375.000000     41.528111
    9009           0     -1047.595947   1698.723511   -624.999939     41.764668
    9010           0     -1047.595947   1698.723511   -875.000000     39.555687
    9011           0     -1047.595947   1698.723511  -1125.000000     38.559422
    9012           0     -1047.595947   1698.723511  -1375.000122     37.116211
    9013           0     -1047.595947   1698.723511  -1625.000000     36.327728
    9014           0     -1047.595947   1698.723511  -1874.999756     35.399261
    9015           0     -1047.595947   1698.723511  -2125.000000     34.973495
    9016           0     -1047.595947   1698.723511  -2375.000244     34.623226
    9017           0     -1047.595947   1698.723511  -2624.999756     34.673664
    9018           0     -1047.595947   1698.723511  -2874.999512     34.915752
    9019           0     -1047.595947   1698.723511  -3124.999756     35.489094
    9020           0     -1047.595947   1698.723511  -3375.000244     36.286358
    9021           0     -1047.595947   1698.723511  -3625.000244     37.347191
    9022           0     -1047.595947   1698.723511  -3875.000244     38.607849
    9023           0     -1047.595947   1698.723511  -4125.000000     40.059612
    9024           0     -1047.595947   1698.723511  -4375.000000     41.658298
    9025           0     -1047.595947   1698.723511  -4625.000000     43.376842
    9026           0     -1047.595947   1698.723511  -4875.000000     45.181950
    9027           0     -1047.595947   1698.723511  -5124.999512     47.043941
    9028           0     -1047.595947   1698.723511  -5374.999512     48.937412
    9029           0     -1047.595947   1698.723511  -5625.000000     50.837017
    9030           0     -1047.595947   1698.723511  -5875.000488     52.723988
    9031           0     -1047.595947   1698.723511  -6125.000977     54.579708
    9032           0     -1047.595947   1698.723511  -6375.000488     56.391994
    9033           0     -1047.595947   1698.723511  -6625.000000     58.149403
    9034           0     -1047.595947   1698.723511  -6875.000488     59.845280
    9035           0     -1047.595947   1698.723511  -7124.999512     61.475040
    9036           0     -1047.595947   1698.723511  -7374.999023     63.037575
    9037           0     -1047.595947   1698.723511  -7625.000000     64.534004
    9038           0     -1047.595947   1698.723511  -7875.000000     65.967430
    9039           0     -1047.595947   1698.723511  -8124.999023     67.343880
    9040           0     -1047.595947   1698.723511  -8374.999023     68.669540
    9041           0     -1047.595947   1698.723511  -8625.000000     69.953697
    9042           0     -1047.595947   1698.723511  -8875.000977     71.203590
    9043           0     -1047.595947   1698.723511  -9125.000000     72.430191
    9044           0     -1047.595947   1698.723511  -9374.999023     73.640823
    9045           0     -1047.595947   1698.723511  -9625.000000     74.845078
    9046           0     -1047.595947   1698.723511  -9875.000000     76.050377
    9047           0     -1047.595947   1698.723511  -10125.00000     77.262527
    9048           0     -1047.595947   1698.723511  -10375.00000     78.491783
    9049           0     -1047.595947   1698.723511  -10624.99902     79.733704
    9050           0     -1047.595947   1698.723511  -10875.00097     81.011810
    9051           0     -1047.595947   1698.723511  -11125.00097     82.297920
    9052           0     -1047.595947   1698.723511  -11375.00000     83.649002
    9053           0     -1047.595947   1698.723511  -11625.00000     84.985023
    9054           0     -1047.595947   1698.723511  -11875.00000     86.428856
    9055           0     -1047.595947   1698.723511  -12125.00000     87.838478
    9056           0     -1047.595947   1698.723511  -12374.99902     89.342339
    9057           0     -1047.595947   1698.723511  -12625.00000     90.739975
    9058           0     -1047.595947   1698.723511  -12874.99902     93.379875
    9059           0     -1047.595947   1698.723511  -13124.99804     91.276100
    9060           0     -1047.595947   1698.723511  -13374.99902     96.358177
    9061           0     -1142.787598   1632.069580   -124.999985     45.803650
    9062           0     -1142.787598   1632.069580   -374.999969     46.266312
    9063           0     -1142.787598   1632.069580   -624.999939     43.942863
    9064           0     -1142.787598   1632.069580   -874.999878     42.751671
    9065           0     -1142.787598   1632.069580  -1124.999878     41.200241
    9066           0     -1142.787598   1632.069580  -1375.000244     40.237431
    9067           0     -1142.787598   1632.069580  -1625.000000     39.152721
    9068           0     -1142.787598   1632.069580  -1874.999512     38.488342
    9069           0     -1142.787598   1632.069580  -2125.000244     37.925781
    9070           0     -1142.787598   1632.069580  -2375.000244     37.678509
    9071           0     -1142.787598   1632.069580  -2624.999756     37.647064
    9072           0     -1142.787598   1632.069580  -2874.999512     37.881851
    9073           0     -1142.787598   1632.069580  -3124.999512     38.364948
    9074           0     -1142.787598   1632.069580  -3375.000488     39.074551
    9075           0     -1142.787598   1632.069580  -3625.000488     40.011444
    9076           0     -1142.787598   1632.069580  -3875.000244     41.126530
    9077           0     -1142.787598   1632.069580  -4125.000488     42.417740
    9078           0     -1142.787598   1632.069580  -4375.000488     43.831692
    9079           0     -1142.787598   1632.069580  -4625.000488     45.360744
    9080           0     -1142.787598   1632.069580  -4874.999512     46.957817
    9081           0     -1142.787598   1632.069580  -5124.999512     48.612633
    9082           0     -1142.787598   1632.069580  -5374.999023     50.288086
    9083           0     -1142.787598   1632.069580  -5625.000000     51.974358
    9084           0     -1142.787598   1632.069580  -5875.000977     53.644199
    9085           0     -1142.787598   1632.069580  -6125.000977     55.289940
    9086           0     -1142.787598   1632.069580  -6375.000000     56.892967
    9087           0     -1142.787598   1632.069580  -6625.000000     58.449158
    9088           0     -1142.787598   1632.069580  -6875.000977     59.946705
    9089           0     -1142.787598   1632.069580  -7124.999023     61.384796
    9090           0     -1142.787598   1632.069580  -7374.998535     62.757870
    9091           0     -1142.787598   1632.069580  -7625.000000     64.068314
    9092           0     -1142.787598   1632.069580  -7875.000000     65.315338
    9093           0     -1142.787598   1632.069580  -8124.999023     66.504486
    9094           0     -1142.787598   1632.069580  -8374.999023     67.638702
    9095           0     -1142.787598   1632.069580  -8625.000000     68.726791
    9096           0     -1142.787598   1632.069580  -8875.000977     69.773071
    9097           0     -1142.787598   1632.069580  -9125.000000     70.789467
    9098           0     -1142.787598   1632.069580  -9374.998047     71.780273
    9099           0     -1142.787598   1632.069580  -9625.000000     72.760208
    9100           0     -1142.787598   1632.069580  -9875.000000     73.729614
    9101           0     -1142.787598   1632.069580  -10125.00000     74.707764
    9102           0     -1142.787598   1632.069580  -10375.00000     75.687454
    9103           0     -1142.787598   1632.069580  -10624.99804     76.693565
    9104           0     -1142.787598   1632.069580  -10875.00195     77.708145
    9105           0     -1142.787598   1632.069580  -11125.00195     78.765930
    9106           0     -1142.787720   1632.069580  -11375.00000     79.832603
    9107           0     -1142.787720   1632.069580  -11625.00000     80.959389
    9108           0     -1142.787720   1632.069580  -11875.00000     82.092850
    9109           0     -1142.787720   1632.069580  -12125.00000     83.286179
    9110           0     -1142.787720   1632.069580  -12375.00000     84.546371
    9111           0     -1142.787720   1632.069580  -12625.00000     85.700409
    9112           0     -1142.787720   1632.069580  -12874.99804     87.042145
    9113           0     -1142.787720   1632.069580  -13124.99609     89.722076
    9114           0     -1142.787720   1632.069580  -13374.99804     84.361908
    9115           0     -1237.979370   1565.415527   -124.999992     49.119469
    9116           0     -1237.979370   1565.415527   -375.000000     49.909863
    9117           0     -1237.979370   1565.415527   -625.000000     48.035221
    9118           0     -1237.979370   1565.415527   -874.999939     46.227100
    9119           0     -1237.979370   1565.415527  -1125.000000     44.903889
    9120           0     -1237.979370   1565.415527  -1375.000122     43.621498
    9121           0     -1237.979370   1565.415527  -1625.000000     42.513977
    9122           0     -1237.979370   1565.415527  -1874.999756     41.656906
    9123           0     -1237.979370   1565.415527  -2125.000000     40.945644
    9124           0     -1237.979370   1565.415527  -2375.000000     40.532612
    9125           0     -1237.979370   1565.415527  -2625.000000     40.289764
    9126           0     -1237.979370   1565.415527  -2874.999756     40.349400
    9127           0     -1237.979370   1565.415527  -3125.000000     40.594173
    9128           0     -1237.979370   1565.415527  -3375.000244     41.114918
    9129           0     -1237.979370   1565.415527  -3625.000000     41.811615
    9130           0     -1237.979370   1565.415527  -3875.000000     42.733627
    9131           0     -1237.979370   1565.415527  -4125.000000     43.798279
    9132           0     -1237.979370   1565.415527  -4375.000000     45.023788
    9133           0     -1237.979370   1565.415527  -4625.000000     46.343971
    9134           0     -1237.979370   1565.415527  -4875.000000     47.758568
    9135           0     -1237.979370   1565.415527  -5125.000000     49.217026
    9136           0     -1237.979370   1565.415527  -5375.000000     50.710617
    9137           0     -1237.979370   1565.415527  -5625.000000     52.203018
    9138           0     -1237.979370   1565.415527  -5875.000488     53.683777
    9139           0     -1237.979370   1565.415527  -6125.000488     55.128277
    9140           0     -1237.979370   1565.415527  -6375.000000     56.528183
    9141           0     -1237.979370   1565.415527  -6625.000000     57.868637
    9142           0     -1237.979370   1565.415527  -6875.000000     59.144974
    9143           0     -1237.979370   1565.415527  -7124.999512     60.349506
    9144           0     -1237.979370   1565.415527  -7374.999023     61.482735
    9145           0     -1237.979370   1565.415527  -7625.000000     62.542091
    9146           0     -1237.979370   1565.415527  -7875.000000     63.532890
    9147           0     -1237.979370   1565.415527  -8125.000000     64.456261
    9148           0     -1237.979370   1565.415527  -8375.000000     65.322235
    9149           0     -1237.979370   1565.415527  -8625.000000     66.134407
    9150           0     -1237.979370   1565.415527  -8875.000000     66.905869
    9151           0     -1237.979370   1565.415527  -9125.000000     67.641937
    9152           0     -1237.979370   1565.415527  -9375.000000     68.357956
    9153           0     -1237.979370   1565.415527  -9625.000000     69.059097
    9154           0     -1237.979370   1565.415527  -9875.000000     69.759689
    9155           0     -1237.979370   1565.415527  -10124.99902     70.465591
    9156           0     -1237.979370   1565.415527  -10374.99902     71.186539
    9157           0     -1237.979370   1565.415527  -10625.00000     71.928467
    9158           0     -1237.979370   1565.415527  -10875.00000     72.693314
    9159           0     -1237.979370   1565.415527  -11125.00000     73.493744
    9160           0     -1237.979492   1565.415527  -11375.00000     74.312088
    9161           0     -1237.979492   1565.415527  -11625.00000     75.190178
    9162           0     -1237.979492   1565.415527  -11875.00000     76.056664
    9163           0     -1237.979492   1565.415527  -12125.00000     77.039703
    9164           0     -1237.979492   1565.415527  -12374.99902     77.960464
    9165           0     -1237.979492   1565.415527  -12625.00000     78.925797
    9166           0     -1237.979492   1565.415527  -12874.99902     80.243095
    9167           0     -1237.979492   1565.415527  -13124.99902     81.568878
    9168           0     -1237.979370   1565.415527  -13374.99902     76.383270
    9169           0     -1326.660889   1491.003052   -124.999985     53.587658
    9170           0     -1326.660889   1491.003052   -375.000000     49.558464
    9171           0     -1326.660889   1491.003052   -624.999939     50.041740
    9172           0     -1326.660889   1491.003052   -875.000000     47.871399
    9173           0     -1326.660889   1491.003052  -1125.000000     47.044865
    9174           0     -1326.660889   1491.003052  -1375.000122     45.678364
    9175           0     -1326.660889   1491.003052  -1625.000000     44.982323
    9176           0     -1326.660889   1491.003052  -1874.999756     44.083569
    9177           0     -1326.660889   1491.003052  -2125.000000     43.647419
    9178           0     -1326.660889   1491.003052  -2375.000244     43.214050
    9179           0     -1326.660889   1491.003052  -2624.999756     43.120090
    9180           0     -1326.660889   1491.003052  -2874.999512     43.133430
    9181           0     -1326.660889   1491.003052  -3124.999756     43.412346
    9182           0     -1326.660889   1491.003052  -3375.000244     43.834572
    9183           0     -1326.660889   1491.003052  -3625.000244     44.464279
    9184           0     -1326.660889   1491.003052  -3875.000244     45.230392
    9185           0     -1326.660889   1491.003052  -4125.000000     46.147911
    9186           0     -1326.660889   1491.003052  -4375.000000     47.169567
    9187           0     -1326.660889   1491.003052  -4625.000000     48.286366
    9188           0     -1326.660889   1491.003052  -4875.000000     49.463154
    9189           0     -1326.660889   1491.003052  -5124.999512     50.681881
    9190           0     -1326.660889   1491.003052  -5374.999512     51.915390
    9191           0     -1326.660889   1491.003052  -5625.000000     53.145054
    9192           0     -1326.660889   1491.003052  -5875.000488     54.350731
    9193           0     -1326.660889   1491.003052  -6125.000977     55.517738
    9194           0     -1326.660889   1491.003052  -6375.000488     56.633060
    9195           0     -1326.660889   1491.003052  -6625.000000     57.688168
    9196           0     -1326.660889   1491.003052  -6875.000488     58.676201
    9197           0     -1326.660889   1491.003052  -7124.999512     59.595543
    9198           0     -1326.660889   1491.003052  -7374.999023     60.444939
    9199           0     -1326.660889   1491.003052  -7625.000000     61.229061
    9200           0     -1326.660889   1491.003052  -7875.000000     61.950344
    9201           0     -1326.660889   1491.003052  -8124.999023     62.619251
    9202           0     -1326.660889   1491.003052  -8374.999023     63.239922
    9203           0     -1326.660889   1491.003052  -8625.000000     63.827660
    9204           0     -1326.660889   1491.003052  -8875.000977     64.385635
    9205           0     -1326.660889   1491.003052  -9125.000000     64.933365
    9206           0     -1326.660889   1491.003052  -9374.999023     65.470810
    9207           0     -1326.660889   1491.003052  -9625.000000     66.020348
    9208           0     -1326.660889   1491.003052  -9875.000000     66.576241
    9209           0     -1326.660889   1491.003052  -10125.00000     67.163612
    9210           0     -1326.660889   1491.003052  -10375.00000     67.768463
    9211           0     -1326.660889   1491.003052  -10624.99902     68.417480
    9212           0     -1326.660889   1491.003052  -10875.00097     69.088715
    9213           0     -1326.660889   1491.003052  -11125.00097     69.810303
    9214           0     -1326.660889   1491.003052  -11375.00000     70.553482
    9215           0     -1326.660889   1491.003052  -11625.00000     71.350586
    9216           0     -1326.660889   1491.003052  -11875.00000     72.158218
    9217           0     -1326.660889   1491.003052  -12125.00000     73.061981
    9218           0     -1326.660889   1491.003052  -12374.99902     73.868004
    9219           0     -1326.660889   1491.003052  -12625.00000     74.841194
    9220           0     -1326.661011   1491.003052  -12874.99902     76.462250
    9221           0     -1326.661011   1491.002930  -13124.99804     74.588074
    9222           0     -1326.661011   1491.002930  -13374.99902     79.177605
    9223           0     -1408.832275   1408.831787   -124.999985     49.473289
    9224           0     -1408.832275   1408.831787   -374.999969     50.361214
    9225           0     -1408.832275   1408.831787   -624.999939     48.637760
    9226           0     -1408.832275   1408.831787   -874.999878     47.906490
    9227           0     -1408.832275   1408.831787  -1124.999878     46.872570
    9228           0     -1408.832275   1408.831787  -1375.000244     46.269001
    9229           0     -1408.832275   1408.831787  -1625.000000     45.570023
    9230           0     -1408.832275   1408.831787  -1874.999512     45.165241
    9231           0     -1408.832275   1408.831787  -2125.000244     44.803612
    9232           0     -1408.832275   1408.831787  -2375.000244     44.663498
    9233           0     -1408.832275   1408.831787  -2624.999756     44.637814
    9234           0     -1408.832275   1408.831787  -2874.999512     44.796482
    9235           0     -1408.832275   1408.831787  -3124.999512     45.096054
    9236           0     -1408.832275   1408.831787  -3375.000488     45.550861
    9237           0     -1408.832275   1408.831787  -3625.000488     46.141232
    9238           0     -1408.832275   1408.831787  -3875.000244     46.853352
    9239           0     -1408.832275   1408.831787  -4125.000488     47.673107
    9240           0     -1408.832275   1408.831787  -4375.000488     48.573727
    9241           0     -1408.832275   1408.831787  -4625.000488     49.540638
    9242           0     -1408.832275   1408.831787  -4874.999512     50.543373
    9243           0     -1408.832275   1408.831787  -5124.999512     51.567001
    9244           0     -1408.832275   1408.831787  -5374.999023     52.583542
    9245           0     -1408.832275   1408.831787  -5625.000000     53.580299
    9246           0     -1408.832275   1408.831787  -5875.000977     54.535374
    9247           0     -1408.832031   1408.831787  -6125.000977     55.440475
    9248           0     -1408.832031   1408.831787  -6375.000000     56.282219
    9249           0     -1408.832031   1408.831787  -6625.000000     57.058575
    9250           0     -1408.832031   1408.831787  -6875.000977     57.764507
    9251           0     -1408.832031   1408.831787  -7124.999023     58.404133
    9252           0     -1408.832031   1408.831787  -7374.998535     58.981087
    9253           0     -1408.832031   1408.831787  -7625.000000     59.504128
    9254           0     -1408.832031   1408.831787  -7875.000000     59.983761
    9255           0     -1408.832031   1408.831787  -8124.999023     60.431274
    9256           0     -1408.832031   1408.831787  -8374.999023     60.862179
    9257           0     -1408.832031   1408.831787  -8625.000000     61.287273
    9258           0     -1408.832031   1408.831787  -8875.000977     61.723881
    9259           0     -1408.832031   1408.831787  -9125.000000     62.179424
    9260           0     -1408.832031   1408.831787  -9374.998047     62.671730
    9261           0     -1408.832031   1408.831787  -9625.000000     63.201382
    9262           0     -1408.832031   1408.831787  -9875.000000     63.784809
    9263           0     -1408.832031   1408.831787  -10125.00000     64.415474
    9264           0     -1408.832031   1408.831787  -10375.00000     65.108276
    9265           0     -1408.832031   1408.831787  -10624.99804     65.848061
    9266           0     -1408.832031   1408.831787  -10875.00195     66.650551
    9267           0     -1408.832031   1408.831787  -11125.00195     67.492210
    9268           0     -1408.832031   1408.831787  -11375.00000     68.391014
    9269           0     -1408.832031   1408.831787  -11625.00000     69.316177
    9270           0     -1408.832031   1408.831787  -11875.00000     70.293602
    9271           0     -1408.832031   1408.831787  -12125.00000     71.270599
    9272           0     -1408.832031   1408.831787  -12375.00000     72.337791
    9273           0     -1408.832031   1408.831787  -12625.00000     73.296692
    9274           0     -1408.832031   1408.831787  -12874.99804     74.324562
    9275           0     -1408.832153   1408.831787  -13124.99609     76.447517
    9276           0     -1408.832153   1408.831787  -13374.99804     72.742699
    9277           0     -1491.003296   1326.660645   -124.999992     47.808857
    9278           0     -1491.003296   1326.660645   -375.000000     50.134903
    9279           0     -1491.003296   1326.660645   -625.000000     48.991714
    9280           0     -1491.003296   1326.660645   -874.999939     48.128998
    9281           0     -1491.003296   1326.660645  -1125.000000     47.636719
    9282           0     -1491.003296   1326.660645  -1375.000122     47.249046
    9283           0     -1491.003296   1326.660645  -1625.000000     46.872227
    9284           0     -1491.003296   1326.660645  -1874.999756     46.755981
    9285           0     -1491.003296   1326.660645  -2125.000000     46.683346
    9286           0     -1491.003296   1326.660645  -2375.000000     46.844238
    9287           0     -1491.003296   1326.660645  -2625.000000     47.102970
    9288           0     -1491.003296   1326.660645  -2874.999756     47.578056
    9289           0     -1491.003296   1326.660645  -3125.000000     48.177681
    9290           0     -1491.003296   1326.660645  -3375.000244     48.970966
    9291           0     -1491.003296   1326.660645  -3625.000000     49.884373
    9292           0     -1491.003296   1326.660645  -3875.000000     50.947712
    9293           0     -1491.003296   1326.660645  -4125.000000     52.094810
    9294           0     -1491.003296   1326.660645  -4375.000000     53.327438
    9295           0     -1491.003296   1326.660645  -4625.000000     54.585846
    9296           0     -1491.003296   1326.660645  -4875.000000     55.856766
    9297           0     -1491.003296   1326.660645  -5125.000000     57.090103
    9298           0     -1491.003296   1326.660645  -5375.000000     58.268665
    9299           0     -1491.003296   1326.660645  -5625.000000     59.354980
    9300           0     -1491.003296   1326.660645  -5875.000488     60.335587
    9301           0     -1491.003296   1326.660645  -6125.000488     61.187004
    9302           0     -1491.003296   1326.660645  -6375.000000     61.903114
    9303           0     -1491.003296   1326.660645  -6625.000000     62.474434
    9304           0     -1491.003296   1326.660645  -6875.000000     62.904186
    9305           0     -1491.003296   1326.660645  -7124.999512     63.195438
    9306           0     -1491.003296   1326.660645  -7374.999023     63.360905
    9307           0     -1491.003296   1326.660645  -7625.000000     63.414654
    9308           0     -1491.003296   1326.660645  -7875.000000     63.377464
    9309           0     -1491.003296   1326.660645  -8125.000000     63.272057
    9310           0     -1491.003296   1326.660645  -8375.000000     63.124218
    9311           0     -1491.003296   1326.660645  -8625.000000     62.962349
    9312           0     -1491.003296   1326.660645  -8875.000000     62.811825
    9313           0     -1491.003296   1326.660645  -9125.000000     62.702629
    9314           0     -1491.003296   1326.660645  -9375.000000     62.653526
    9315           0     -1491.003296   1326.660645  -9625.000000     62.692604
    9316           0     -1491.003296   1326.660645  -9875.000000     62.824238
    9317           0     -1491.003296   1326.660645  -10124.99902     63.074623
    9318           0     -1491.003296   1326.660645  -10374.99902     63.428642
    9319           0     -1491.003296   1326.660645  -10625.00000     63.912453
    9320           0     -1491.003296   1326.660645  -10875.00000     64.489098
    9321           0     -1491.003296   1326.660645  -11125.00000     65.191521
    9322           0     -1491.003296   1326.660645  -11375.00000     65.956322
    9323           0     -1491.003296   1326.660645  -11625.00000     66.835289
    9324           0     -1491.003296   1326.660645  -11875.00000     67.729919
    9325           0     -1491.003296   1326.660645  -12125.00000     68.734901
    9326           0     -1491.003296   1326.660645  -12374.99902     69.703728
    9327           0     -1491.003296   1326.660645  -12625.00000     70.751595
    9328           0     -1491.003296   1326.660645  -12874.99902     71.826309
    9329           0     -1491.003296   1326.660645  -13124.99902     73.511955
    9330           0     -1491.003296   1326.660645  -13374.99902     69.216034
    9331           0     -1565.416016   1237.979126   -124.999985     46.725620
    9332           0     -1565.416016   1237.979126   -375.000000     46.561344
    9333           0     -1565.416016   1237.979126   -624.999939     47.062668
    9334           0     -1565.416016   1237.979126   -875.000000     46.469028
    9335           0     -1565.416016   1237.979126  -1125.000000     46.674030
    9336           0     -1565.416016   1237.979126  -1375.000122     46.489010
    9337           0     -1565.416016   1237.979126  -1625.000000     46.718334
    9338           0     -1565.416016   1237.979126  -1874.999756     46.842525
    9339           0     -1565.416016   1237.979126  -2125.000000     47.246666
    9340           0     -1565.416016   1237.979126  -2375.000244     47.674191
    9341           0     -1565.416016   1237.979126  -2624.999756     48.328411
    9342           0     -1565.416016   1237.979126  -2874.999512     49.071056
    9343           0     -1565.416016   1237.979126  -3124.999756     50.010334
    9344           0     -1565.416016   1237.979126  -3375.000244     51.059582
    9345           0     -1565.416016   1237.979126  -3625.000244     52.265259
    9346           0     -1565.416016   1237.979126  -3875.000244     53.558765
    9347           0     -1565.416016   1237.979126  -4125.000000     54.945469
    9348           0     -1565.416016   1237.979126  -4375.000000     56.364086
    9349           0     -1565.416016   1237.979126  -4625.000000     57.797741
    9350           0     -1565.416016   1237.979126  -4875.000000     59.193092
    9351           0     -1565.416016   1237.979126  -5124.999512     60.527069
    9352           0     -1565.416016   1237.979126  -5374.999512     61.757458
    9353           0     -1565.416016   1237.979126  -5625.000000     62.864998
    9354           0     -1565.416016   1237.979126  -5875.000488     63.820644
    9355           0     -1565.416016   1237.979126  -6125.000977     64.613785
    9356           0     -1565.416016   1237.979126  -6375.000488     65.228996
    9357           0     -1565.416016   1237.979126  -6625.000000     65.666611
    9358           0     -1565.416016   1237.979126  -6875.000488     65.923462
    9359           0     -1565.416016   1237.979126  -7124.999512     66.010925
    9360           0     -1565.416016   1237.979126  -7374.999023     65.938576
    9361           0     -1565.416016   1237.979126  -7625.000000     65.727753
    9362           0     -1565.416016   1237.979126  -7875.000000     65.398972
    9363           0     -1565.416016   1237.979126  -8124.999023     64.983498
    9364           0     -1565.416016   1237.979126  -8374.999023     64.509987
    9365           0     -1565.416016   1237.979126  -8625.000000     64.017830
    9366           0     -1565.416016   1237.979126  -8875.000977     63.538494
    9367           0     -1565.416016   1237.979126  -9125.000000     63.115540
    9368           0     -1565.416016   1237.979126  -9374.999023     62.777122
    9369           0     -1565.416016   1237.979126  -9625.000000     62.562901
    9370           0     -1565.416016   1237.979126  -9875.000000     62.489986
    9371           0     -1565.416016   1237.979126  -10125.00000     62.587566
    9372           0     -1565.416016   1237.979126  -10375.00000     62.856056
    9373           0     -1565.416016   1237.979126  -10624.99902     63.308464
    9374           0     -1565.416016   1237.979126  -10875.00097     63.928860
    9375           0     -1565.416016   1237.979126  -11125.00097     64.715439
    9376           0     -1565.416016   1237.979126  -11375.00000     65.636375
    9377           0     -1565.416016   1237.979126  -11625.00000     66.688187
    9378           0     -1565.416016   1237.979126  -11875.00000     67.806519
    9379           0     -1565.416016   1237.979126  -12125.00000     69.072136
    9380           0     -1565.416016   1237.979126  -12374.99902     70.206825
    9381           0     -1565.416016   1237.979126  -12625.00000     71.619789
    9382           0     -1565.416016   1237.979126  -12874.99902     73.488304
    9383           0     -1565.416016   1237.979126  -13124.99804     72.025475
    9384           0     -1565.416016   1237.979126  -13374.99902     77.931160
    9385           0     -1632.069946   1142.787354   -124.999985     42.907982
    9386           0     -1632.069946   1142.787354   -374.999969     44.431503
    9387           0     -1632.069946   1142.787354   -624.999939     43.897564
    9388           0     -1632.069946   1142.787354   -874.999878     44.305145
    9389           0     -1632.069946   1142.787354  -1124.999878     44.407558
    9390           0     -1632.069946   1142.787354  -1375.000244     44.556698
    9391           0     -1632.069946   1142.787354  -1625.000000     44.831993
    9392           0     -1632.069946   1142.787354  -1874.999512     45.156403
    9393           0     -1632.069946   1142.787354  -2125.000244     45.605175
    9394           0     -1632.069946   1142.787354  -2375.000244     46.199116
    9395           0     -1632.069946   1142.787354  -2624.999756     46.924099
    9396           0     -1632.069946   1142.787354  -2874.999512     47.831356
    9397           0     -1632.069946   1142.787354  -3124.999512     48.873718
    9398           0     -1632.069946   1142.787354  -3375.000488     50.081940
    9399           0     -1632.069946   1142.787354  -3625.000488     51.394695
    9400           0     -1632.069946   1142.787354  -3875.000244     52.813709
    9401           0     -1632.069946   1142.787354  -4125.000488     54.274723
    9402           0     -1632.069946   1142.787354  -4375.000488     55.760807
    9403           0     -1632.069946   1142.787354  -4625.000488     57.214748
    9404           0     -1632.069946   1142.787354  -4874.999512     58.614491
    9405           0     -1632.069946   1142.787354  -5124.999512     59.915756
    9406           0     -1632.069946   1142.787354  -5374.999023     61.099815
    9407           0     -1632.069946   1142.787354  -5625.000000     62.137897
    9408           0     -1632.069946   1142.787354  -5875.000977     63.018005
    9409           0     -1632.069946   1142.787354  -6125.000977     63.725128
    9410           0     -1632.069946   1142.787354  -6375.000000     64.256752
    9411           0     -1632.069946   1142.787354  -6625.000000     64.609718
    9412           0     -1632.069946   1142.787354  -6875.000977     64.790573
    9413           0     -1632.069946   1142.787354  -7124.999023     64.806946
    9414           0     -1632.069946   1142.787354  -7374.998535     64.675354
    9415           0     -1632.069946   1142.787354  -7625.000000     64.413010
    9416           0     -1632.069946   1142.787354  -7875.000000     64.047096
    9417           0     -1632.069946   1142.787354  -8124.999023     63.603321
    9418           0     -1632.069946   1142.787354  -8374.999023     63.120888
    9419           0     -1632.069946   1142.787354  -8625.000000     62.630783
    9420           0     -1632.069946   1142.787354  -8875.000977     62.182953
    9421           0     -1632.069946   1142.787354  -9125.000000     61.809959
    9422           0     -1632.069946   1142.787354  -9374.998047     61.567184
    9423           0     -1632.069946   1142.787354  -9625.000000     61.478970
    9424           0     -1632.069946   1142.787354  -9875.000000     61.597080
    9425           0     -1632.069946   1142.787354  -10125.00000     61.927902
    9426           0     -1632.069946   1142.787354  -10375.00000     62.506916
    9427           0     -1632.069946   1142.787354  -10624.99804     63.316784
    9428           0     -1632.069946   1142.787354  -10875.00195     64.366768
    9429           0     -1632.069946   1142.787354  -11125.00195     65.627090
    9430           0     -1632.069946   1142.787354  -11375.00000     67.067978
    9431           0     -1632.069946   1142.787354  -11625.00000     68.684303
    9432           0     -1632.069946   1142.787354  -11875.00000     70.378532
    9433           0     -1632.069946   1142.787354  -12125.00000     72.231262
    9434           0     -1632.069946   1142.787354  -12375.00000     74.063454
    9435           0     -1632.069946   1142.787354  -12625.00000     75.950134
    9436           0     -1632.069946   1142.787354  -12874.99804     77.874214
    9437           0     -1632.069946   1142.787354  -13124.99609     80.650711
    9438           0     -1632.069946   1142.787354  -13374.99804     78.075249
    9439           0     -1698.723877   1047.595581   -124.999992     43.271835
    9440           0     -1698.723877   1047.595581   -375.000000     43.528248
    9441           0     -1698.723877   1047.595581   -625.000000     43.873196
    9442           0     -1698.723877   1047.595581   -874.999939     43.619301
    9443           0     -1698.723877   1047.595581  -1125.000000     43.563992
    9444           0     -1698.723877   1047.595581  -1375.000122     43.799393
    9445           0     -1698.723877   1047.595581  -1625.000000     43.942005
    9446           0     -1698.723877   1047.595581  -1874.999756     44.424671
    9447           0     -1698.723877   1047.595581  -2125.000000     45.009056
    9448           0     -1698.723877   1047.595581  -2375.000000     45.905197
    9449           0     -1698.723877   1047.595581  -2625.000000     47.022213
    9450           0     -1698.723877   1047.595581  -2874.999756     48.425713
    9451           0     -1698.723877   1047.595581  -3125.000000     50.054947
    9452           0     -1698.723877   1047.595581  -3375.000244     51.887951
    9453           0     -1698.723877   1047.595581  -3625.000000     53.861767
    9454           0     -1698.723877   1047.595581  -3875.000000     55.916660
    9455           0     -1698.723877   1047.595581  -4125.000000     57.994183
    9456           0     -1698.723877   1047.595581  -4375.000000     60.032753
    9457           0     -1698.723877   1047.595581  -4625.000000     61.987801
    9458           0     -1698.723877   1047.595581  -4875.000000     63.812187
    9459           0     -1698.723877   1047.595581  -5125.000000     65.477043
    9460           0     -1698.723877   1047.595581  -5375.000000     66.953232
    9461           0     -1698.723877   1047.595581  -5625.000000     68.224266
    9462           0     -1698.723877   1047.595581  -5875.000488     69.277115
    9463           0     -1698.723877   1047.595581  -6125.000488     70.105476
    9464           0     -1698.723877   1047.595581  -6375.000000     70.707718
    9465           0     -1698.723877   1047.595581  -6625.000000     71.085747
    9466           0     -1698.723877   1047.595581  -6875.000000     71.247978
    9467           0     -1698.723877   1047.595581  -7124.999512     71.203888
    9468           0     -1698.723877   1047.595581  -7374.999023     70.969505
    9469           0     -1698.723877   1047.595581  -7625.000000     70.563881
    9470           0     -1698.723877   1047.595581  -7875.000000     70.011070
    9471           0     -1698.723877   1047.595581  -8125.000000     69.341156
    9472           0     -1698.723877   1047.595581  -8375.000000     68.586823
    9473           0     -1698.723877   1047.595581  -8625.000000     67.791901
    9474           0     -1698.723877   1047.595581  -8875.000000     66.997429
    9475           0     -1698.723877   1047.595581  -9125.000000     66.261108
    9476           0     -1698.723877   1047.595581  -9375.000000     65.627304
    9477           0     -1698.723877   1047.595581  -9625.000000     65.165161
    9478           0     -1698.723877   1047.595581  -9875.000000     64.907661
    9479           0     -1698.723877   1047.595581  -10124.99902     64.925591
    9480           0     -1698.723877   1047.595581  -10374.99902     65.221123
    9481           0     -1698.723877   1047.595581  -10625.00000     65.852821
    9482           0     -1698.723877   1047.595581  -10875.00000     66.778473
    9483           0     -1698.723877   1047.595581  -11125.00000     68.034363
    9484           0     -1698.723877   1047.595581  -11375.00000     69.548599
    9485           0     -1698.723877   1047.595581  -11625.00000     71.321701
    9486           0     -1698.723877   1047.595581  -11875.00000     73.307945
    9487           0     -1698.723877   1047.595581  -12125.00000     75.420311
    9488           0     -1698.723877   1047.595581  -12374.99902     77.737411
    9489           0     -1698.723877   1047.595581  -12625.00000     79.961899
    9490           0     -1698.723877   1047.595581  -12874.99902     82.537819
    9491           0     -1698.723877   1047.595581  -13124.99902     85.039818
    9492           0     -1698.723877   1047.595581  -13374.99902     82.754112
    9493           0     -1756.606689    947.339722   -124.999985     43.474350
    9494           0     -1756.606689    947.339722   -375.000000     48.607922
    9495           0     -1756.606689    947.339722   -624.999939     46.287373
    9496           0     -1756.606689    947.339722   -875.000000     45.129913
    9497           0     -1756.606689    947.339722  -1125.000000     44.117115
    9498           0     -1756.606689    947.339722  -1375.000122     43.468906
    9499           0     -1756.606689    947.339722  -1625.000000     42.842403
    9500           0     -1756.606689    947.339722  -1874.999756     42.691353
    9501           0     -1756.606689    947.339722  -2125.000000     42.788605
    9502           0     -1756.606689    947.339722  -2375.000244     43.328442
    9503           0     -1756.606689    947.339722  -2624.999756     44.250282
    9504           0     -1756.606689    947.339722  -2874.999512     45.570313
    9505           0     -1756.606689    947.339722  -3124.999756     47.228519
    9506           0     -1756.606689    947.339722  -3375.000244     49.156696
    9507           0     -1756.606689    947.339722  -3625.000244     51.272995
    9508           0     -1756.606689    947.339722  -3875.000244     53.492607
    9509           0     -1756.606689    947.339722  -4125.000000     55.739166
    9510           0     -1756.606689    947.339722  -4375.000000     57.945488
    9511           0     -1756.606689    947.339722  -4625.000000     60.056786
    9512           0     -1756.606689    947.339722  -4875.000000     62.029522
    9513           0     -1756.606689    947.339722  -5124.999512     63.831478
    9514           0     -1756.606689    947.339722  -5374.999512     65.438332
    9515           0     -1756.606689    947.339722  -5625.000000     66.835396
    9516           0     -1756.606689    947.339722  -5875.000488     68.011757
    9517           0     -1756.606689    947.339722  -6125.000977     68.965172
    9518           0     -1756.606689    947.339722  -6375.000488     69.693832
    9519           0     -1756.606689    947.339722  -6625.000000     70.205383
    9520           0     -1756.606689    947.339722  -6875.000488     70.504601
    9521           0     -1756.606689    947.339722  -7124.999512     70.607079
    9522           0     -1756.606689    947.339722  -7374.999023     70.525009
    9523           0     -1756.606689    947.339722  -7625.000000     70.281319
    9524           0     -1756.606689    947.339722  -7875.000000     69.896286
    9525           0     -1756.606689    947.339722  -8124.999023     69.401924
    9526           0     -1756.606689    947.339722  -8374.999023     68.828362
    9527           0     -1756.606689    947.339722  -8625.000000     68.217918
    9528           0     -1756.606689    947.339722  -8875.000977     67.612137
    9529           0     -1756.606689    947.339722  -9125.000000     67.062538
    9530           0     -1756.606689    947.339722  -9374.999023     66.624146
    9531           0     -1756.606689    947.339722  -9625.000000     66.347786
    9532           0     -1756.606689    947.339722  -9875.000000     66.301086
    9533           0     -1756.606689    947.339722  -10125.00000     66.514214
    9534           0     -1756.606689    947.339722  -10375.00000     67.065872
    9535           0     -1756.606689    947.339722  -10624.99902     67.931648
    9536           0     -1756.606689    947.339722  -10875.00097     69.209618
    9537           0     -1756.606689    947.339722  -11125.00097     70.784554
    9538           0     -1756.606689    947.339722  -11375.00000     72.798592
    9539           0     -1756.606689    947.339722  -11625.00000     75.020729
    9540           0     -1756.606689    947.339722  -11875.00000     77.661743
    9541           0     -1756.606689    947.339722  -12125.00000     80.423080
    9542           0     -1756.606689    947.339722  -12374.99902     83.401169
    9543           0     -1756.606689    947.339722  -12625.00000     86.512009
    9544           0     -1756.606689    947.339722  -12874.99902     90.605583
    9545           0     -1756.606689    947.339722  -13124.99804     89.868759
    9546           0     -1756.606689    947.339722  -13374.99902     99.661522
    9547           0     -1805.718140    842.019836   -124.999985     57.000397
    9548           0     -1805.718140    842.019836   -374.999969     58.243111
    9549           0     -1805.718140    842.019836   -624.999939     53.700249
    9550           0     -1805.718140    842.019836   -874.999878     50.558884
    9551           0     -1805.718140    842.019836  -1124.999878     47.423698
    9552           0     -1805.718140    842.019836  -1375.000244     44.562756
    9553           0     -1805.718140    842.019836  -1625.000000     42.098572
    9554           0     -1805.718140    842.019836  -1874.999512     40.105659
    9555           0     -1805.718140    842.019836  -2125.000244     38.692135
    9556           0     -1805.718140    842.019836  -2375.000244     37.988300
    9557           0     -1805.718140    842.019836  -2624.999756     37.975418
    9558           0     -1805.718140    842.019836  -2874.999512     38.683300
    9559           0     -1805.718140    842.019836  -3124.999512     39.960178
    9560           0     -1805.718140    842.019836  -3375.000488     41.727829
    9561           0     -1805.718140    842.019836  -3625.000488     43.801086
    9562           0     -1805.718140    842.019836  -3875.000244     46.087349
    9563           0     -1805.718140    842.019836  -4125.000488     48.444496
    9564           0     -1805.718140    842.019836  -4375.000488     50.810120
    9565           0     -1805.718140    842.019836  -4625.000488     53.093922
    9566           0     -1805.718140    842.019836  -4874.999512     55.263626
    9567           0     -1805.718140    842.019836  -5124.999512     57.266045
    9568           0     -1805.718140    842.019836  -5374.999023     59.088547
    9569           0     -1805.718140    842.019836  -5625.000000     60.702503
    9570           0     -1805.718140    842.019836  -5875.000977     62.107204
    9571           0     -1805.718140    842.019836  -6125.000977     63.289433
    9572           0     -1805.718140    842.019836  -6375.000000     64.257965
    9573           0     -1805.718140    842.019836  -6625.000000     65.009949
    9574           0     -1805.718140    842.019836  -6875.000977     65.562531
    9575           0     -1805.718140    842.019836  -7124.999023     65.921280
    9576           0     -1805.718140    842.019836  -7374.998535     66.112282
    9577           0     -1805.718140    842.019836  -7625.000000     66.148582
    9578           0     -1805.718140    842.019836  -7875.000000     66.067383
    9579           0     -1805.718140    842.019836  -8124.999023     65.888382
    9580           0     -1805.718140    842.019836  -8374.999023     65.663132
    9581           0     -1805.718140    842.019775  -8625.000000     65.416344
    9582           0     -1805.718140    842.019775  -8875.000977     65.216614
    9583           0     -1805.718140    842.019775  -9125.000000     65.092010
    9584           0     -1805.718140    842.019775  -9374.998047     65.126633
    9585           0     -1805.718140    842.019775  -9625.000000     65.347656
    9586           0     -1805.718140    842.019775  -9875.000000     65.846855
    9587           0     -1805.718140    842.019775  -10125.00000     66.646255
    9588           0     -1805.718140    842.019775  -10375.00000     67.821808
    9589           0     -1805.718140    842.019775  -10624.99804     69.394012
    9590           0     -1805.718140    842.019775  -10875.00195     71.380325
    9591           0     -1805.718140    842.019775  -11125.00195     73.829811
    9592           0     -1805.718140    842.019775  -11375.00000     76.627373
    9593           0     -1805.718140    842.019775  -11625.00000     79.942207
    9594           0     -1805.718140    842.019775  -11875.00000     83.397690
    9595           0     -1805.718140    842.019775  -12125.00000     87.470459
    9596           0     -1805.718140    842.019775  -12375.00000     91.390450
    9597           0     -1805.718140    842.019775  -12625.00000     95.818573
    9598           0     -1805.718140    842.019775  -12874.99804    100.407394
    9599           0     -1805.718140    842.019775  -13124.99609    105.826454
    9600           0     -1805.718140    842.019836  -13374.99804    104.153084
    9601           0     -1854.829468    736.699951   -124.999992     77.231171
    9602           0     -1854.829468    736.699951   -375.000000     66.849548
    9603           0     -1854.829468    736.699951   -625.000000     65.130539
    9604           0     -1854.829468    736.699951   -874.999939     58.062199
    9605           0     -1854.829468    736.699951  -1125.000000     53.077766
    9606           0     -1854.829468    736.699951  -1375.000122     47.681679
    9607           0     -1854.829468    736.699951  -1625.000000     43.162952
    9608           0     -1854.829468    736.699951  -1874.999756     38.972836
    9609           0     -1854.829468    736.699951  -2125.000000     35.892971
    9610           0     -1854.829468    736.699951  -2375.000000     33.827316
    9611           0     -1854.829468    736.699951  -2625.000000     33.143440
    9612           0     -1854.829468    736.699951  -2874.999756     33.678520
    9613           0     -1854.829468    736.699951  -3125.000000     35.325230
    9614           0     -1854.829468    736.699951  -3375.000244     37.730145
    9615           0     -1854.829468    736.699951  -3625.000000     40.658413
    9616           0     -1854.829468    736.699951  -3875.000000     43.830166
    9617           0     -1854.829468    736.699951  -4125.000000     47.106869
    9618           0     -1854.829468    736.699951  -4375.000000     50.328785
    9619           0     -1854.829468    736.699951  -4625.000000     53.437305
    9620           0     -1854.829468    736.699951  -4875.000000     56.345512
    9621           0     -1854.829468    736.699951  -5125.000000     59.033215
    9622           0     -1854.829468    736.699951  -5375.000000     61.453484
    9623           0     -1854.829468    736.699951  -5625.000000     63.602795
    9624           0     -1854.829468    736.699951  -5875.000488     65.458336
    9625           0     -1854.829468    736.699951  -6125.000488     67.025864
    9626           0     -1854.829468    736.699951  -6375.000000     68.297974
    9627           0     -1854.829468    736.699951  -6625.000000     69.287758
    9628           0     -1854.829468    736.699951  -6875.000000     70.000969
    9629           0     -1854.829468    736.699951  -7124.999512     70.458694
    9630           0     -1854.829468    736.699951  -7374.999023     70.677231
    9631           0     -1854.829468    736.699951  -7625.000000     70.689224
    9632           0     -1854.829468    736.699951  -7875.000000     70.521683
    9633           0     -1854.829468    736.699951  -8125.000000     70.221901
    9634           0     -1854.829468    736.699951  -8375.000000     69.826935
    9635           0     -1854.829468    736.699951  -8625.000000     69.404053
    9636           0     -1854.829468    736.699951  -8875.000000     68.998840
    9637           0     -1854.829468    736.699951  -9125.000000     68.701202
    9638           0     -1854.829468    736.699951  -9375.000000     68.557892
    9639           0     -1854.829468    736.699951  -9625.000000     68.683754
    9640           0     -1854.829468    736.699951  -9875.000000     69.111122
    9641           0     -1854.829468    736.699951  -10124.99902     69.970337
    9642           0     -1854.829468    736.699890  -10374.99902     71.259338
    9643           0     -1854.829468    736.699890  -10625.00000     73.101112
    9644           0     -1854.829468    736.699890  -10875.00000     75.446968
    9645           0     -1854.829468    736.699890  -11125.00000     78.369164
    9646           0     -1854.829468    736.699890  -11375.00000     81.808624
    9647           0     -1854.829468    736.699890  -11625.00000     85.705482
    9648           0     -1854.829468    736.699890  -11875.00000     90.136421
    9649           0     -1854.829468    736.699890  -12125.00000     94.737946
    9650           0     -1854.829468    736.699890  -12374.99902    100.094208
    9651           0     -1854.829468    736.699890  -12625.00000    104.971397
    9652           0     -1854.829468    736.699890  -12874.99902    111.643478
    9653           0     -1854.829468    736.699890  -13124.99902    116.451012
    9654           0     -1854.829468    736.699951  -13374.99902    117.400406
    9655           0     -1894.423584    627.916016   -124.999985     85.092453
    9656           0     -1894.423584    627.916016   -375.000000     80.658585
    9657           0     -1894.423584    627.916016   -624.999939     74.479050
    9658           0     -1894.423584    627.916016   -875.000000     65.226196
    9659           0     -1894.423584    627.916016  -1125.000000     57.657612
    9660           0     -1894.423584    627.916016  -1375.000122     50.056755
    9661           0     -1894.423584    627.916016  -1625.000000     42.770119
    9662           0     -1894.423584    627.916016  -1874.999756     36.194229
    9663           0     -1894.423584    627.916016  -2125.000000     30.620895
    9664           0     -1894.423584    627.916016  -2375.000244     26.721210
    9665           0     -1894.423584    627.916016  -2624.999756     24.979174
    9666           0     -1894.423584    627.916016  -2874.999512     25.725275
    9667           0     -1894.423584    627.916016  -3124.999756     28.358545
    9668           0     -1894.423584    627.916016  -3375.000244     32.305653
    9669           0     -1894.423584    627.916016  -3625.000244     36.794144
    9670           0     -1894.423584    627.916016  -3875.000244     41.554749
    9671           0     -1894.423584    627.916016  -4125.000000     46.233391
    9672           0     -1894.423584    627.916016  -4375.000000     50.776611
    9673           0     -1894.423584    627.916016  -4625.000000     55.021591
    9674           0     -1894.423584    627.916016  -4875.000000     58.971874
    9675           0     -1894.423584    627.916016  -5124.999512     62.545059
    9676           0     -1894.423584    627.916016  -5374.999512     65.756981
    9677           0     -1894.423584    627.916016  -5625.000000     68.565285
    9678           0     -1894.423584    627.916016  -5875.000488     70.987686
    9679           0     -1894.423584    627.916016  -6125.000977     73.006584
    9680           0     -1894.423584    627.916016  -6375.000488     74.640236
    9681           0     -1894.423584    627.916016  -6625.000000     75.889236
    9682           0     -1894.423584    627.916016  -6875.000488     76.773888
    9683           0     -1894.423584    627.916016  -7124.999512     77.311188
    9684           0     -1894.423584    627.916016  -7374.999023     77.525780
    9685           0     -1894.423584    627.916016  -7625.000000     77.452347
    9686           0     -1894.423584    627.916016  -7875.000000     77.123817
    9687           0     -1894.423584    627.916016  -8124.999023     76.594475
    9688           0     -1894.423584    627.916016  -8374.999023     75.911446
    9689           0     -1894.423584    627.916016  -8625.000000     75.149956
    9690           0     -1894.423584    627.916016  -8875.000977     74.378716
    9691           0     -1894.423584    627.916016  -9125.000000     73.690575
    9692           0     -1894.423584    627.916016  -9374.999023     73.181961
    9693           0     -1894.423584    627.916016  -9625.000000     72.947174
    9694           0     -1894.423584    627.916016  -9875.000000     73.112946
    9695           0     -1894.423584    627.916016  -10125.00000     73.733002
    9696           0     -1894.423584    627.916016  -10375.00000     74.967285
    9697           0     -1894.423584    627.916016  -10624.99902     76.756081
    9698           0     -1894.423584    627.916016  -10875.00097     79.317108
    9699           0     -1894.423584    627.916016  -11125.00097     82.383728
    9700           0     -1894.423584    627.916016  -11375.00000     86.317589
    9701           0     -1894.423584    627.916016  -11625.00000     90.540215
    9702           0     -1894.423584    627.916016  -11875.00000     95.724945
    9703           0     -1894.423584    627.916016  -12125.00000    100.900375
    9704           0     -1894.423584    627.916016  -12374.99902    107.112740
    9705           0     -1894.423584    627.916016  -12625.00000    113.047997
    9706           0     -1894.423584    627.916016  -12874.99902    121.511398
    9707           0     -1894.423584    627.916016  -13124.99804    122.616211
    9708           0     -1894.423584    627.916016  -13374.99902    139.007996
    9709           0     -1924.500366    515.667969   -124.999985     94.757019
    9710           0     -1924.500366    515.667969   -374.999969     93.392227
    9711           0     -1924.500366    515.667969   -624.999939     81.938072
    9712           0     -1924.500366    515.667969   -874.999878     71.312988
    9713           0     -1924.500366    515.667969  -1124.999878     61.106651
    9714           0     -1924.500366    515.667969  -1375.000244     51.627781
    9715           0     -1924.500366    515.667969  -1625.000000     42.047882
    9716           0     -1924.500366    515.667969  -1874.999512     34.037560
    9717           0     -1924.500366    515.667969  -2125.000244     27.394054
    9718           0     -1924.500366    515.667969  -2375.000244     23.900957
    9719           0     -1924.500366    515.667969  -2624.999756     24.033863
    9720           0     -1924.500366    515.667969  -2874.999512     27.453291
    9721           0     -1924.500366    515.667969  -3124.999512     32.749401
    9722           0     -1924.500366    515.667969  -3375.000488     38.793983
    9723           0     -1924.500366    515.667969  -3625.000488     45.061211
    9724           0     -1924.500366    515.667969  -3875.000244     51.177193
    9725           0     -1924.500366    515.667969  -4125.000488     57.038605
    9726           0     -1924.500366    515.667969  -4375.000488     62.508633
    9727           0     -1924.500366    515.667969  -4625.000488     67.573013
    9728           0     -1924.500366    515.667969  -4874.999512     72.174339
    9729           0     -1924.500366    515.667969  -5124.999512     76.317245
    9730           0     -1924.500366    515.667969  -5374.999023     79.980064
    9731           0     -1924.500366    515.667969  -5625.000000     83.170868
    9732           0     -1924.500366    515.667969  -5875.000977     85.887283
    9733           0     -1924.500366    515.667969  -6125.000977     88.137405
    9734           0     -1924.500366    515.667969  -6375.000000     89.931274
    9735           0     -1924.500366    515.667969  -6625.000000     91.277763
    9736           0     -1924.500366    515.667969  -6875.000977     92.197327
    9737           0     -1924.500366    515.667969  -7124.999023     92.700287
    9738           0     -1924.500366    515.667969  -7374.998535     92.818634
    9739           0     -1924.500366    515.667969  -7625.000000     92.566521
    9740           0     -1924.500366    515.667969  -7875.000000     91.991470
    9741           0     -1924.500366    515.667969  -8124.999023     91.115074
    9742           0     -1924.500366    515.667969  -8374.999023     90.006500
    9743           0     -1924.500366    515.667969  -8625.000000     88.699638
    9744           0     -1924.500366    515.667969  -8875.000977     87.295326
    9745           0     -1924.500366    515.667969  -9125.000000     85.844406
    9746           0     -1924.500366    515.667969  -9374.998047     84.487152
    9747           0     -1924.500366    515.667969  -9625.000000     83.294228
    9748           0     -1924.500366    515.667969  -9875.000000     82.443535
    9749           0     -1924.500366    515.667969  -10125.00000     82.020355
    9750           0     -1924.500366    515.667969  -10375.00000     82.206253
    9751           0     -1924.500366    515.667969  -10624.99804     83.090172
    9752           0     -1924.500366    515.667969  -10875.00195     84.776138
    9753           0     -1924.500366    515.667969  -11125.00195     87.370560
    9754           0     -1924.500366    515.667969  -11375.00000     90.774277
    9755           0     -1924.500366    515.667969  -11625.00000     95.220932
    9756           0     -1924.500366    515.667969  -11875.00000    100.228157
    9757           0     -1924.500366    515.667969  -12125.00000    106.416817
    9758           0     -1924.500366    515.667969  -12375.00000    112.731628
    9759           0     -1924.500366    515.667969  -12625.00000    120.070030
    9760           0     -1924.500366    515.667969  -12874.99804    128.063599
    9761           0     -1924.500366    515.667969  -13124.99609    136.990067
    9762           0     -1924.500366    515.667969  -13374.99804    137.041916
    9763           0     -1954.577148    403.420013   -124.999992    116.205261
    9764           0     -1954.577148    403.420013   -375.000000     99.402626
    9765           0     -1954.577148    403.420013   -625.000000     92.094643
    9766           0     -1954.577148    403.420013   -874.999939     77.073395
    9767           0     -1954.577148    403.420013  -1125.000000     66.034813
    9768           0     -1954.577148    403.420013  -1375.000122     53.562080
    9769           0     -1954.577148    403.420013  -1625.000000     43.374184
    9770           0     -1954.577148    403.420013  -1874.999756     34.345928
    9771           0     -1954.577148    403.420013  -2125.000000     29.416832
    9772           0     -1954.577148    403.420013  -2375.000000     28.976740
    9773           0     -1954.577148    403.420013  -2625.000000     33.047192
    9774           0     -1954.577148    403.420013  -2874.999756     39.572964
    9775           0     -1954.577148    403.420013  -3125.000000     47.108986
    9776           0     -1954.577148    403.420013  -3375.000244     54.880119
    9777           0     -1954.577148    403.420013  -3625.000000     62.451084
    9778           0     -1954.577148    403.420013  -3875.000000     69.664268
    9779           0     -1954.577148    403.420013  -4125.000000     76.385017
    9780           0     -1954.577148    403.420013  -4375.000000     82.585808
    9781           0     -1954.577148    403.420013  -4625.000000     88.223679
    9782           0     -1954.577148    403.420013  -4875.000000     93.300812
    9783           0     -1954.577148    403.420013  -5125.000000     97.810242
    9784           0     -1954.577148    403.420013  -5375.000000    101.760262
    9785           0     -1954.577148    403.420013  -5625.000000    105.159737
    9786           0     -1954.577148    403.420013  -5875.000488    108.017601
    9787           0     -1954.577148    403.420013  -6125.000488    110.349960
    9788           0     -1954.577148    403.420013  -6375.000000    112.163757
    9789           0     -1954.577148    403.420013  -6625.000000    113.479462
    9790           0     -1954.577148    403.420013  -6875.000000    114.302750
    9791           0     -1954.577148    403.420013  -7124.999512    114.657997
    9792           0     -1954.577148    403.420013  -7374.999023    114.550430
    9793           0     -1954.577148    403.420013  -7625.000000    114.011162
    9794           0     -1954.577148    403.420013  -7875.000000    113.047653
    9795           0     -1954.577148    403.420013  -8125.000000    111.704079
    9796           0     -1954.577148    403.420013  -8375.000000    109.993111
    9797           0     -1954.577148    403.420013  -8625.000000    107.984726
    9798           0     -1954.577148    403.420013  -8875.000000    105.701180
    9799           0     -1954.577148    403.420013  -9125.000000    103.256371
    9800           0     -1954.577148    403.420013  -9375.000000    100.689171
    9801           0     -1954.577148    403.420013  -9625.000000     98.183403
    9802           0     -1954.577148    403.420013  -9875.000000     95.799828
    9803           0     -1954.577148    403.420013  -10124.99902     93.816406
    9804           0     -1954.577148    403.420013  -10374.99902     92.308990
    9805           0     -1954.577148    403.420013  -10625.00000     91.642456
    9806           0     -1954.577148    403.420013  -10875.00000     91.867813
    9807           0     -1954.577148    403.419983  -11125.00000     93.344757
    9808           0     -1954.577148    403.419983  -11375.00000     96.036201
    9809           0     -1954.577148    403.419983  -11625.00000    100.103020
    9810           0     -1954.577148    403.419983  -11875.00000    105.458168
    9811           0     -1954.577148    403.419983  -12125.00000    111.786766
    9812           0     -1954.577148    403.419983  -12374.99902    119.443542
    9813           0     -1954.577148    403.419983  -12625.00000    126.652809
    9814           0     -1954.577148    403.419983  -12874.99902    136.906921
    9815           0     -1954.577148    403.419983  -13124.99902    144.861755
    9816           0     -1954.577148    403.420013  -13374.99902    146.421082
    9817           0     -1974.679565    289.413330   -124.999985    113.844757
    9818           0     -1974.679565    289.413330   -375.000000     98.215881
    9819           0     -1974.679565    289.413330   -624.999939     90.253105
    9820           0     -1974.679565    289.413330   -875.000000     75.203003
    9821           0     -1974.679565    289.413330  -1125.000000     64.044205
    9822           0     -1974.679565    289.413330  -1375.000122     52.529709
    9823           0     -1974.679565    289.413330  -1625.000000     44.329689
    9824           0     -1974.679565    289.413330  -1874.999756     39.183643
    9825           0     -1974.679565    289.413330  -2125.000000     38.999340
    9826           0     -1974.679565    289.413330  -2375.000244     42.798561
    9827           0     -1974.679565    289.413330  -2624.999756     49.183788
    9828           0     -1974.679565    289.413330  -2874.999512     56.831005
    9829           0     -1974.679565    289.413330  -3124.999756     64.758270
    9830           0     -1974.679565    289.413330  -3375.000244     72.642700
    9831           0     -1974.679565    289.413330  -3625.000244     80.105637
    9832           0     -1974.679565    289.413330  -3875.000244     87.135910
    9833           0     -1974.679565    289.413330  -4125.000000     93.574425
    9834           0     -1974.679565    289.413330  -4375.000000     99.476151
    9835           0     -1974.679565    289.413330  -4625.000000    104.770515
    9836           0     -1974.679565    289.413330  -4875.000000    109.519066
    9837           0     -1974.679565    289.413330  -5124.999512    113.692024
    9838           0     -1974.679565    289.413330  -5374.999512    117.342720
    9839           0     -1974.679565    289.413330  -5625.000000    120.460968
    9840           0     -1974.679565    289.413330  -5875.000488    123.088615
    9841           0     -1974.679565    289.413330  -6125.000977    125.224625
    9842           0     -1974.679565    289.413330  -6375.000488    126.900505
    9843           0     -1974.679565    289.413330  -6625.000000    128.119370
    9844           0     -1974.679565    289.413330  -6875.000488    128.903015
    9845           0     -1974.679565    289.413330  -7124.999512    129.256287
    9846           0     -1974.679565    289.413330  -7374.999023    129.195572
    9847           0     -1974.679565    289.413330  -7625.000000    128.727142
    9848           0     -1974.679565    289.413330  -7875.000000    127.865288
    9849           0     -1974.679565    289.413330  -8124.999023    126.620880
    9850           0     -1974.679565    289.413330  -8374.999023    125.012833
    9851           0     -1974.679565    289.413330  -8625.000000    123.061897
    9852           0     -1974.679565    289.413330  -8875.000977    120.800957
    9853           0     -1974.679565    289.413330  -9125.000000    118.271912
    9854           0     -1974.679565    289.413330  -9374.999023    115.539009
    9855           0     -1974.679565    289.413361  -9625.000000    112.679008
    9856           0     -1974.679565    289.413361  -9875.000000    109.814049
    9857           0     -1974.679565    289.413361  -10125.00000    107.073402
    9858           0     -1974.679565    289.413361  -10375.00000    104.671371
    9859           0     -1974.679565    289.413361  -10624.99902    102.784103
    9860           0     -1974.679565    289.413361  -10875.00097    101.744629
    9861           0     -1974.679565    289.413361  -11125.00097    101.675735
    9862           0     -1974.679565    289.413361  -11375.00000    103.020187
    9863           0     -1974.679565    289.413361  -11625.00000    105.548500
    9864           0     -1974.679565    289.413361  -11875.00000    109.856766
    9865           0     -1974.679565    289.413361  -12125.00000    114.888855
    9866           0     -1974.679565    289.413361  -12374.99902    121.753212
    9867           0     -1974.679565    289.413361  -12625.00000    128.143936
    9868           0     -1974.679565    289.413361  -12874.99902    137.805511
    9869           0     -1974.679565    289.413361  -13124.99804    140.189056
    9870           0     -1974.679565    289.413330  -13374.99902    157.992874
    9871           0     -1984.807617    173.647873   -124.999985     90.961235
    9872           0     -1984.807617    173.647873   -374.999969     88.564995
    9873           0     -1984.807617    173.647873   -624.999939     77.339180
    9874           0     -1984.807617    173.647873   -874.999878     65.893044
    9875           0     -1984.807617    173.647873  -1124.999878     57.199207
    9876           0     -1984.807617    173.647873  -1375.000244     52.012840
    9877           0     -1984.807617    173.647873  -1625.000000     50.296658
    9878           0     -1984.807617    173.647873  -1874.999512     52.715931
    9879           0     -1984.807617    173.647873  -2125.000244     57.610226
    9880           0     -1984.807617    173.647873  -2375.000244     64.085373
    9881           0     -1984.807617    173.647873  -2624.999756     71.171257
    9882           0     -1984.807617    173.647873  -2874.999512     78.303314
    9883           0     -1984.807617    173.647873  -3124.999512     85.225166
    9884           0     -1984.807617    173.647873  -3375.000488     91.693687
    9885           0     -1984.807617    173.647873  -3625.000488     97.700806
    9886           0     -1984.807617    173.647873  -3875.000244    103.146103
    9887           0     -1984.807617    173.647873  -4125.000488    108.090294
    9888           0     -1984.807617    173.647888  -4375.000488    112.497192
    9889           0     -1984.807617    173.647888  -4625.000488    116.437813
    9890           0     -1984.807617    173.647888  -4874.999512    119.905518
    9891           0     -1984.807617    173.647888  -5124.999512    122.962761
    9892           0     -1984.807617    173.647888  -5374.999023    125.615395
    9893           0     -1984.807617    173.647888  -5625.000000    127.913338
    9894           0     -1984.807617    173.647888  -5875.000977    129.865280
    9895           0     -1984.807617    173.647888  -6125.000977    131.506897
    9896           0     -1984.807617    173.647888  -6375.000000    132.846848
    9897           0     -1984.807617    173.647888  -6625.000000    133.908005
    9898           0     -1984.807617    173.647873  -6875.000977    134.695923
    9899           0     -1984.807617    173.647873  -7124.999023    135.222321
    9900           0     -1984.807617    173.647873  -7374.998535    135.489655
    9901           0     -1984.807617    173.647888  -7625.000000    135.500717
    9902           0     -1984.807617    173.647888  -7875.000000    135.255081
    9903           0     -1984.807617    173.647888  -8124.999023    134.749695
    9904           0     -1984.807617    173.647888  -8374.999023    133.983994
    9905           0     -1984.807617    173.647888  -8625.000000    132.952530
    9906           0     -1984.807617    173.647888  -8875.000977    131.659836
    9907           0     -1984.807617    173.647888  -9125.000000    130.106522
    9908           0     -1984.807617    173.647888  -9374.998047    128.309586
    9909           0     -1984.807617    173.647888  -9625.000000    126.288498
    9910           0     -1984.807617    173.647888  -9875.000000    124.088356
    9911           0     -1984.807617    173.647888  -10125.00000    121.768524
    9912           0     -1984.807617    173.647888  -10375.00000    119.422012
    9913           0     -1984.807617    173.647888  -10624.99804    117.177460
    9914           0     -1984.807617    173.647888  -10875.00195    115.192490
    9915           0     -1984.807617    173.647888  -11125.00195    113.685295
    9916           0     -1984.807617    173.647888  -11375.00000    112.852913
    9917           0     -1984.807617    173.647888  -11625.00000    112.968964
    9918           0     -1984.807617    173.647888  -11875.00000    114.140717
    9919           0     -1984.807617    173.647888  -12125.00000    116.593414
    9920           0     -1984.807617    173.647888  -12375.00000    120.095284
    9921           0     -1984.807617    173.647903  -12625.00000    124.843674
    9922           0     -1984.807617    173.647903  -12874.99804    129.841858
    9923           0     -1984.807617    173.647903  -13124.99609    137.154663
    9924           0     -1984.807617    173.647888  -13374.99804    135.766129
    9925           0     -1994.935791     57.882427   -124.999992     78.981590
    9926           0     -1994.935791     57.882427   -375.000000     73.401176
    9927           0     -1994.935791     57.882427   -625.000000     66.585823
    9928           0     -1994.935791     57.882427   -874.999939     56.431759
    9929           0     -1994.935791     57.882427  -1125.000000     53.359592
    9930           0     -1994.935791     57.882427  -1375.000122     54.943626
    9931           0     -1994.935791     57.882427  -1625.000000     60.726326
    9932           0     -1994.935791     57.882427  -1874.999756     68.488052
    9933           0     -1994.935791     57.882427  -2125.000000     76.862572
    9934           0     -1994.935791     57.882427  -2375.000000     85.046524
    9935           0     -1994.935791     57.882427  -2625.000000     92.646004
    9936           0     -1994.935791     57.882427  -2874.999756     99.539665
    9937           0     -1994.935791     57.882427  -3125.000000    105.642998
    9938           0     -1994.935791     57.882427  -3375.000244    111.019531
    9939           0     -1994.935791     57.882427  -3625.000000    115.675789
    9940           0     -1994.935791     57.882427  -3875.000000    119.716805
    9941           0     -1994.935791     57.882427  -4125.000000    123.177559
    9942           0     -1994.935791     57.882427  -4375.000000    126.161072
    9943           0     -1994.935791     57.882427  -4625.000000    128.708405
    9944           0     -1994.935791     57.882427  -4875.000000    130.906036
    9945           0     -1994.935791     57.882427  -5125.000000    132.792038
    9946           0     -1994.935791     57.882427  -5375.000000    134.431992
    9947           0     -1994.935791     57.882427  -5625.000000    135.856277
    9948           0     -1994.935791     57.882427  -5875.000488    137.111404
    9949           0     -1994.935791     57.882427  -6125.000488    138.217773
    9950           0     -1994.935791     57.882427  -6375.000000    139.204315
    9951           0     -1994.935791     57.882427  -6625.000000    140.082184
    9952           0     -1994.935791     57.882423  -6875.000000    140.863831
    9953           0     -1994.935791     57.882420  -7124.999512    141.551804
    9954           0     -1994.935791     57.882420  -7374.999023    142.143677
    9955           0     -1994.935791     57.882420  -7625.000000    142.633789
    9956           0     -1994.935791     57.882420  -7875.000000    143.005493
    9957           0     -1994.935791     57.882420  -8125.000000    143.246475
    9958           0     -1994.935791     57.882420  -8375.000000    143.325974
    9959           0     -1994.935791     57.882420  -8625.000000    143.227158
    9960           0     -1994.935791     57.882420  -8875.000000    142.905975
    9961           0     -1994.935791     57.882420  -9125.000000    142.346237
    9962           0     -1994.935791     57.882420  -9375.000000    141.492538
    9963           0     -1994.935791     57.882420  -9625.000000    140.339874
    9964           0     -1994.935791     57.882420  -9875.000000    138.826431
    9965           0     -1994.935791     57.882420  -10124.99902    136.979141
    9966           0     -1994.935791     57.882420  -10374.99902    134.742157
    9967           0     -1994.935791     57.882420  -10625.00000    132.212463
    9968           0     -1994.935791     57.882420  -10875.00000    129.359970
    9969           0     -1994.935791     57.882420  -11125.00000    126.427391
    9970           0     -1994.935791     57.882420  -11375.00000    123.425362
    9971           0     -1994.935791     57.882420  -11625.00000    120.890137
    9972           0     -1994.935791     57.882420  -11875.00000    118.801682
    9973           0     -1994.935791     57.882420  -12125.00000    118.191124
    9974           0     -1994.935791     57.882420  -12374.99902    118.686676
    9975           0     -1994.935791     57.882420  -12625.00000    121.013245
    9976           0     -1994.935791     57.882420  -12874.99902    125.094894
    9977           0     -1994.935791     57.882420  -13124.99902    130.125870
    9978           0     -1994.935791     57.882423  -13374.99902    120.632874
    9979           0     -1997.493652    -50.000221   -124.999985     55.991440
    9980           0     -1997.493652    -50.000221   -375.000000     51.038483
    9981           0     -1997.493652    -50.000221   -624.999939     48.015392
    9982           0     -1997.493652    -50.000221   -875.000000     44.458324
    9983           0     -1997.493652    -50.000221  -1125.000000     48.041901
    9984           0     -1997.493652    -50.000221  -1375.000122     54.849686
    9985           0     -1997.493652    -50.000221  -1625.000000     63.802902
    9986           0     -1997.493652    -50.000221  -1874.999756     72.692703
    9987           0     -1997.493652    -50.000221  -2125.000000     80.951500
    9988           0     -1997.493652    -50.000221  -2375.000000     88.209084
    9989           0     -1997.493652    -50.000221  -2625.000000     94.364464
    9990           0     -1997.493652    -50.000221  -2874.999512     99.495567
    9991           0     -1997.493652    -50.000221  -3124.999756    103.646568
    9992           0     -1997.493652    -50.000221  -3375.000244    106.980110
    9993           0     -1997.493652    -50.000221  -3625.000244    109.577965
    9994           0     -1997.493652    -50.000221  -3875.000244    111.601982
    9995           0     -1997.493652    -50.000221  -4125.000000    113.134644
    9996           0     -1997.493652    -50.000221  -4375.000000    114.313881
    9997           0     -1997.493652    -50.000221  -4625.000000    115.210152
    9998           0     -1997.493652    -50.000221  -4875.000000    115.929810
    9999           0     -1997.493652    -50.000221  -5125.000000    116.528564
   10000           0     -1997.493652    -50.000221  -5374.999512    117.081032
   10001           0     -1997.493652    -50.000221  -5625.000000    117.627205
   10002           0     -1997.493652    -50.000221  -5875.000000    118.215744
   10003           0     -1997.493652    -50.000221  -6125.000000    118.869186
   10004           0     -1997.493652    -50.000221  -6375.000000    119.615898
   10005           0     -1997.493652    -50.000221  -6625.000000    120.463036
   10006           0     -1997.493652    -50.000221  -6875.000000    121.421860
   10007           0     -1997.493652    -50.000221  -7124.999023    122.485397
   10008           0     -1997.493652    -50.000221  -7374.999512    123.651566
   10009           0     -1997.493652    -50.000221  -7625.000000    124.897957
   10010           0     -1997.493652    -50.000221  -7875.000000    126.211502
   10011           0     -1997.493652    -50.000221  -8125.000000    127.553841
   10012           0     -1997.493652    -50.000221  -8375.000000    128.901871
   10013           0     -1997.493652    -50.000221  -8625.000000    130.200012
   10014           0     -1997.493652    -50.000221  -8875.000000    131.414902
   10015           0     -1997.493652    -50.000221  -9125.000000    132.473938
   10016           0     -1997.493652    -50.000221  -9375.000000    133.335312
   10017           0     -1997.493652    -50.000221  -9625.000000    133.909927
   10018           0     -1997.493652    -50.000221  -9875.000000    134.156418
   10019           0     -1997.493652    -50.000221  -10125.00000    133.973938
   10020           0     -1997.493652    -50.000221  -10375.00000    133.341721
   10021           0     -1997.493652    -50.000221  -10625.00000    132.161530
   10022           0     -1997.493652    -50.000221  -10875.00097    130.478043
   10023           0     -1997.493652    -50.000221  -11125.00097    128.238510
   10024           0     -1997.493652    -50.000221  -11375.00000    125.635574
   10025           0     -1997.493652    -50.000221  -11625.00000    122.765671
   10026           0     -1997.493652    -50.000221  -11875.00000    120.082741
   10027           0     -1997.493652    -50.000221  -12125.00000    117.958649
   10028           0     -1997.493652    -50.000221  -12375.00000    117.015350
   10029           0     -1997.493652    -50.000221  -12625.00000    117.358902
   10030           0     -1997.493652    -50.000221  -12875.00000    118.900856
   10031           0     -1997.493652    -50.000221  -13124.99804    120.228081
   10032           0     -1997.493652    -50.000221  -13374.99902    112.730423
   10033           0     -1992.480957   -150.000076   -124.999985     19.900185
   10034           0     -1992.480957   -150.000076   -375.000000     24.604689
   10035           0     -1992.480957   -150.000076   -625.000000     27.628916
   10036           0     -1992.480957   -150.000076   -874.999939     34.738419
   10037           0     -1992.480957   -150.000076  -1125.000000     43.339573
   10038           0     -1992.480957   -150.000076  -1375.000122     51.446262
   10039           0     -1992.480957   -150.000076  -1625.000000     58.979885
   10040           0     -1992.480957   -150.000076  -1874.999756     65.253891
   10041           0     -1992.480957   -150.000076  -2125.000000     70.403023
   10042           0     -1992.480957   -150.000076  -2375.000000     74.243881
   10043           0     -1992.480957   -150.000076  -2625.000000     77.050331
   10044           0     -1992.480957   -150.000076  -2874.999756     78.771469
   10045           0     -1992.480957   -150.000076  -3125.000000     79.735657
   10046           0     -1992.480957   -150.000076  -3375.000244     79.947906
   10047           0     -1992.480957   -150.000076  -3625.000244     79.723152
   10048           0     -1992.480957   -150.000076  -3875.000000     79.085106
   10049           0     -1992.480957   -150.000076  -4125.000000     78.300819
   10050           0     -1992.480957   -150.000076  -4375.000000     77.391556
   10051           0     -1992.480957   -150.000076  -4625.000000     76.564247
   10052           0     -1992.480957   -150.000076  -4875.000000     75.827377
   10053           0     -1992.480957   -150.000076  -5124.999512     75.325439
   10054           0     -1992.480957   -150.000076  -5374.999512     75.050972
   10055           0     -1992.480957   -150.000076  -5625.000000     75.091988
   10056           0     -1992.480957   -150.000076  -5875.000488     75.425323
   10057           0     -1992.480957   -150.000076  -6125.000488     76.097237
   10058           0     -1992.480957   -150.000076  -6375.000000     77.073753
   10059           0     -1992.480957   -150.000076  -6625.000000     78.372589
   10060           0     -1992.480957   -150.000076  -6875.000000     79.957283
   10061           0     -1992.480957   -150.000076  -7124.999023     81.828049
   10062           0     -1992.480957   -150.000076  -7374.999023     83.950073
   10063           0     -1992.480957   -150.000076  -7625.000000     86.312889
   10064           0     -1992.480957   -150.000076  -7875.000000     88.881424
   10065           0     -1992.480957   -150.000076  -8125.000000     91.634811
   10066           0     -1992.480957   -150.000076  -8375.000000     94.534828
   10067           0     -1992.480957   -150.000076  -8625.000000     97.545296
   10068           0     -1992.480957   -150.000076  -8875.000000    100.619049
   10069           0     -1992.480957   -150.000076  -9125.000000    103.700073
   10070           0     -1992.480957   -150.000076  -9374.999023    106.729042
   10071           0     -1992.480957   -150.000076  -9625.000000    109.626015
   10072           0     -1992.480957   -150.000076  -9875.000000    112.318924
   10073           0     -1992.480957   -150.000076  -10125.00000    114.709679
   10074           0     -1992.480957   -150.000076  -10375.00000    116.720444
   10075           0     -1992.480957   -150.000076  -10625.00000    118.256912
   10076           0     -1992.480957   -150.000076  -10875.00097    119.258621
   10077           0     -1992.480957   -150.000076  -11125.00000    119.687645
   10078           0     -1992.480957   -150.000076  -11375.00000    119.545288
   10079           0     -1992.480957   -150.000076  -11625.00000    118.943825
   10080           0     -1992.480957   -150.000076  -11875.00000    117.989204
   10081           0     -1992.480957   -150.000076  -12125.00000    117.027473
   10082           0     -1992.480957   -150.000076  -12374.99902    116.099304
   10083           0     -1992.480957   -150.000076  -12625.00000    115.993233
   10084           0     -1992.480957   -150.000076  -12874.99902    114.381149
   10085           0     -1992.480957   -150.000076  -13124.99804    115.182777
   10086           0     -1992.480957   -150.000076  -13374.99902    107.182663
   10087           0     -1979.795044   -273.648315   -124.999992     35.874744
   10088           0     -1979.795044   -273.648315   -375.000000     36.416771
   10089           0     -1979.795044   -273.648315   -625.000000     39.857262
   10090           0     -1979.795044   -273.648315   -875.000000     44.526665
   10091           0     -1979.795044   -273.648315  -1125.000000     52.534920
   10092           0     -1979.795044   -273.648315  -1375.000000     60.958347
   10093           0     -1979.795044   -273.648315  -1625.000000     69.517830
   10094           0     -1979.795044   -273.648315  -1875.000000     77.131577
   10095           0     -1979.795044   -273.648315  -2125.000000     83.752518
   10096           0     -1979.795044   -273.648315  -2375.000000     89.153976
   10097           0     -1979.795044   -273.648315  -2625.000000     93.405922
   10098           0     -1979.795044   -273.648315  -2875.000000     96.571434
   10099           0     -1979.795044   -273.648315  -3125.000000     98.790192
   10100           0     -1979.795044   -273.648315  -3375.000000    100.205223
   10101           0     -1979.795044   -273.648315  -3625.000000    100.972183
   10102           0     -1979.795044   -273.648315  -3875.000000    101.238220
   10103           0     -1979.795044   -273.648315  -4125.000000    101.142845
   10104           0     -1979.795044   -273.648315  -4375.000000    100.810860
   10105           0     -1979.795044   -273.648315  -4625.000000    100.354553
   10106           0     -1979.795044   -273.648315  -4875.000000     99.869202
   10107           0     -1979.795044   -273.648315  -5125.000000     99.437401
   10108           0     -1979.795044   -273.648315  -5375.000000     99.125259
   10109           0     -1979.795044   -273.648315  -5625.000000     98.987068
   10110           0     -1979.795044   -273.648315  -5875.000000     99.063080
   10111           0     -1979.795044   -273.648315  -6125.000000     99.383080
   10112           0     -1979.795044   -273.648315  -6375.000000     99.965935
   10113           0     -1979.795044   -273.648315  -6625.000000    100.820953
   10114           0     -1979.795044   -273.648315  -6875.000000    101.948898
   10115           0     -1979.795044   -273.648315  -7124.999512    103.343025
   10116           0     -1979.795044   -273.648315  -7375.000000    104.989891
   10117           0     -1979.795044   -273.648315  -7625.000000    106.868729
   10118           0     -1979.795044   -273.648315  -7875.000000    108.952286
   10119           0     -1979.795044   -273.648315  -8125.000000    111.206696
   10120           0     -1979.795044   -273.648315  -8375.000000    113.591942
   10121           0     -1979.795044   -273.648315  -8625.000000    116.058449
   10122           0     -1979.795044   -273.648315  -8875.000000    118.551895
   10123           0     -1979.795044   -273.648315  -9125.000000    121.006432
   10124           0     -1979.795044   -273.648315  -9375.000000    123.354111
   10125           0     -1979.795044   -273.648315  -9625.000000    125.510490
   10126           0     -1979.795044   -273.648315  -9875.000000    127.400047
   10127           0     -1979.795044   -273.648315  -10125.00000    128.924393
   10128           0     -1979.795044   -273.648315  -10375.00000    130.018936
   10129           0     -1979.795044   -273.648315  -10625.00000    130.583755
   10130           0     -1979.795044   -273.648315  -10875.00000    130.615616
   10131           0     -1979.795044   -273.648315  -11125.00000    130.042770
   10132           0     -1979.795044   -273.648315  -11375.00000    129.031021
   10133           0     -1979.795044   -273.648315  -11625.00000    127.582031
   10134           0     -1979.795044   -273.648315  -11875.00000    126.215958
   10135           0     -1979.795044   -273.648315  -12125.00000    125.016251
   10136           0     -1979.795044   -273.648315  -12374.99902    124.957306
   10137           0     -1979.795044   -273.648315  -12625.00000    126.050255
   10138           0     -1979.795044   -273.648315  -12875.00000    129.741974
   10139           0     -1979.795044   -273.648315  -13125.00000    132.853317
   10140           0     -1979.795044   -273.648315  -13375.00000    131.180313
   10141           0     -1954.577026   -403.420563   -124.999985     70.917587
   10142           0     -1954.577026   -403.420563   -375.000000     69.771294
   10143           0     -1954.577026   -403.420563   -624.999939     65.621727
   10144           0     -1954.577026   -403.420563   -875.000000     59.643944
   10145           0     -1954.577026   -403.420563  -1125.000000     60.514683
   10146           0     -1954.577026   -403.420563  -1375.000122     64.492943
   10147           0     -1954.577026   -403.420563  -1625.000000     71.170349
   10148           0     -1954.577026   -403.420563  -1874.999756     78.602463
   10149           0     -1954.577026   -403.420563  -2125.000000     86.140648
   10150           0     -1954.577026   -403.420563  -2375.000244     93.104523
   10151           0     -1954.577026   -403.420563  -2624.999756     99.418381
   10152           0     -1954.577026   -403.420563  -2874.999512    104.915436
   10153           0     -1954.577026   -403.420563  -3124.999756    109.667641
   10154           0     -1954.577026   -403.420563  -3375.000244    113.680084
   10155           0     -1954.577026   -403.420563  -3625.000244    117.051743
   10156           0     -1954.577026   -403.420563  -3875.000244    119.842941
   10157           0     -1954.577026   -403.420563  -4125.000000    122.149979
   10158           0     -1954.577026   -403.420563  -4375.000000    124.045715
   10159           0     -1954.577026   -403.420563  -4625.000000    125.612198
   10160           0     -1954.577026   -403.420563  -4875.000000    126.917053
   10161           0     -1954.577026   -403.420563  -5124.999512    128.023727
   10162           0     -1954.577026   -403.420563  -5374.999512    128.987717
   10163           0     -1954.577026   -403.420563  -5625.000000    129.854797
   10164           0     -1954.577026   -403.420563  -5875.000488    130.665451
   10165           0     -1954.577026   -403.420563  -6125.000977    131.449051
   10166           0     -1954.577026   -403.420563  -6375.000488    132.231674
   10167           0     -1954.577026   -403.420563  -6625.000000    133.027679
   10168           0     -1954.577026   -403.420563  -6875.000488    133.850433
   10169           0     -1954.577026   -403.420563  -7124.999512    134.701492
   10170           0     -1954.577026   -403.420563  -7374.999023    135.580399
   10171           0     -1954.577026   -403.420563  -7625.000000    136.477921
   10172           0     -1954.577026   -403.420563  -7875.000000    137.381378
   10173           0     -1954.577026   -403.420563  -8124.999023    138.270920
   10174           0     -1954.577026   -403.420563  -8374.999023    139.122635
   10175           0     -1954.577026   -403.420563  -8625.000000    139.906494
   10176           0     -1954.577026   -403.420563  -8875.000977    140.591721
   10177           0     -1954.577026   -403.420563  -9125.000000    141.139465
   10178           0     -1954.577026   -403.420563  -9374.999023    141.516251
   10179           0     -1954.577026   -403.420563  -9625.000000    141.681686
   10180           0     -1954.577026   -403.420563  -9875.000000    141.612839
   10181           0     -1954.577026   -403.420563  -10125.00000    141.278320
   10182           0     -1954.577026   -403.420563  -10375.00000    140.689240
   10183           0     -1954.577026   -403.420563  -10624.99902    139.843460
   10184           0     -1954.577026   -403.420563  -10875.00097    138.828659
   10185           0     -1954.577026   -403.420563  -11125.00097    137.696762
   10186           0     -1954.577026   -403.420563  -11375.00000    136.685944
   10187           0     -1954.577026   -403.420563  -11625.00000    135.932617
   10188           0     -1954.577026   -403.420563  -11875.00000    135.944138
   10189           0     -1954.577026   -403.420563  -12125.00000    136.883377
   10190           0     -1954.577026   -403.420563  -12374.99902    140.012787
   10191           0     -1954.577026   -403.420563  -12625.00000    143.475586
   10192           0     -1954.577026   -403.420563  -12874.99902    153.520920
   10193           0     -1954.577026   -403.420563  -13124.99804    159.919769
   10194           0     -1954.577026   -403.420563  -13374.99902    150.396820
   10195           0     -1924.500244   -515.668518   -124.999985     89.725113
   10196           0     -1924.500244   -515.668518   -374.999969     88.999893
   10197           0     -1924.500244   -515.668518   -624.999939     81.284302
   10198           0     -1924.500244   -515.668518   -874.999878     72.132492
   10199           0     -1924.500244   -515.668518  -1124.999878     66.624039
   10200           0     -1924.500244   -515.668518  -1375.000244     63.751316
   10201           0     -1924.500244   -515.668518  -1625.000000     63.395340
   10202           0     -1924.500244   -515.668518  -1874.999512     65.939728
   10203           0     -1924.500244   -515.668518  -2125.000244     69.981712
   10204           0     -1924.500244   -515.668518  -2375.000244     75.196518
   10205           0     -1924.500244   -515.668518  -2624.999756     80.763504
   10206           0     -1924.500244   -515.668518  -2874.999512     86.413803
   10207           0     -1924.500244   -515.668518  -3124.999512     91.839050
   10208           0     -1924.500244   -515.668518  -3375.000488     96.925606
   10209           0     -1924.500244   -515.668518  -3625.000488    101.595810
   10210           0     -1924.500244   -515.668518  -3875.000244    105.821594
   10211           0     -1924.500244   -515.668518  -4125.000488    109.613205
   10212           0     -1924.500244   -515.668518  -4375.000488    112.979866
   10213           0     -1924.500244   -515.668518  -4625.000488    115.960846
   10214           0     -1924.500244   -515.668518  -4874.999512    118.578125
   10215           0     -1924.500244   -515.668518  -5124.999512    120.876457
   10216           0     -1924.500244   -515.668518  -5374.999023    122.879250
   10217           0     -1924.500244   -515.668518  -5625.000000    124.625359
   10218           0     -1924.500244   -515.668518  -5875.000977    126.135437
   10219           0     -1924.500244   -515.668518  -6125.000977    127.440392
   10220           0     -1924.500244   -515.668518  -6375.000000    128.553711
   10221           0     -1924.500244   -515.668518  -6625.000000    129.498489
   10222           0     -1924.500244   -515.668518  -6875.000977    130.281113
   10223           0     -1924.500244   -515.668518  -7124.999023    130.917221
   10224           0     -1924.500244   -515.668518  -7374.998535    131.406113
   10225           0     -1924.500244   -515.668518  -7625.000000    131.758438
   10226           0     -1924.500244   -515.668518  -7875.000000    131.967133
   10227           0     -1924.500244   -515.668518  -8124.999023    132.041504
   10228           0     -1924.500244   -515.668518  -8374.999023    131.969315
   10229           0     -1924.500244   -515.668518  -8625.000000    131.765823
   10230           0     -1924.500244   -515.668518  -8875.000977    131.415894
   10231           0     -1924.500244   -515.668518  -9125.000000    130.951355
   10232           0     -1924.500244   -515.668518  -9374.998047    130.359924
   10233           0     -1924.500244   -515.668518  -9625.000000    129.710403
   10234           0     -1924.500244   -515.668518  -9875.000000    128.996780
   10235           0     -1924.500244   -515.668579  -10125.00000    128.361694
   10236           0     -1924.500244   -515.668579  -10375.00000    127.802689
   10237           0     -1924.500244   -515.668579  -10624.99804    127.596146
   10238           0     -1924.500244   -515.668579  -10875.00195    127.705887
   10239           0     -1924.500244   -515.668579  -11125.00195    128.628448
   10240           0     -1924.500244   -515.668579  -11375.00000    130.158646
   10241           0     -1924.500244   -515.668579  -11625.00000    133.126663
   10242           0     -1924.500244   -515.668579  -11875.00000    136.824051
   10243           0     -1924.500244   -515.668579  -12125.00000    142.570236
   10244           0     -1924.500244   -515.668579  -12375.00000    148.800537
   10245           0     -1924.500244   -515.668579  -12625.00000    156.801743
   10246           0     -1924.500244   -515.668579  -12874.99804    166.173660
   10247           0     -1924.500244   -515.668579  -13124.99609    175.227844
   10248           0     -1924.500244   -515.668579  -13374.99804    174.800705
   10249           0     -1894.423340   -627.916504   -124.999992    117.249985
   10250           0     -1894.423340   -627.916504   -375.000000    102.803253
   10251           0     -1894.423340   -627.916504   -625.000000     96.977135
   10252           0     -1894.423340   -627.916504   -874.999939     83.631699
   10253           0     -1894.423340   -627.916504  -1125.000000     74.053795
   10254           0     -1894.423340   -627.916504  -1375.000122     64.360794
   10255           0     -1894.423340   -627.916504  -1625.000000     57.703033
   10256           0     -1894.423340   -627.916504  -1874.999756     53.431652
   10257           0     -1894.423340   -627.916504  -2125.000000     52.837273
   10258           0     -1894.423340   -627.916504  -2375.000000     55.002327
   10259           0     -1894.423340   -627.916504  -2625.000000     59.387371
   10260           0     -1894.423340   -627.916504  -2874.999756     64.982445
   10261           0     -1894.423340   -627.916504  -3125.000000     71.140602
   10262           0     -1894.423340   -627.916504  -3375.000244     77.423889
   10263           0     -1894.423340   -627.916504  -3625.000000     83.528511
   10264           0     -1894.423340   -627.916504  -3875.000000     89.328674
   10265           0     -1894.423340   -627.916504  -4125.000000     94.702873
   10266           0     -1894.423340   -627.916504  -4375.000000     99.636322
   10267           0     -1894.423340   -627.916504  -4625.000000    104.086487
   10268           0     -1894.423340   -627.916504  -4875.000000    108.073753
   10269           0     -1894.423340   -627.916504  -5125.000000    111.589920
   10270           0     -1894.423340   -627.916504  -5375.000000    114.663422
   10271           0     -1894.423340   -627.916504  -5625.000000    117.300690
   10272           0     -1894.423340   -627.916504  -5875.000488    119.528313
   10273           0     -1894.423340   -627.916504  -6125.000488    121.357170
   10274           0     -1894.423340   -627.916504  -6375.000000    122.810448
   10275           0     -1894.423340   -627.916504  -6625.000000    123.899414
   10276           0     -1894.423340   -627.916504  -6875.000000    124.642662
   10277           0     -1894.423340   -627.916504  -7124.999512    125.050194
   10278           0     -1894.423340   -627.916504  -7374.999023    125.140602
   10279           0     -1894.423340   -627.916504  -7625.000000    124.922630
   10280           0     -1894.423340   -627.916504  -7875.000000    124.419060
   10281           0     -1894.423340   -627.916504  -8125.000000    123.641052
   10282           0     -1894.423340   -627.916504  -8375.000000    122.624901
   10283           0     -1894.423340   -627.916504  -8625.000000    121.389374
   10284           0     -1894.423340   -627.916504  -8875.000000    119.998306
   10285           0     -1894.423340   -627.916504  -9125.000000    118.487114
   10286           0     -1894.423340   -627.916504  -9375.000000    116.973549
   10287           0     -1894.423340   -627.916504  -9625.000000    115.513802
   10288           0     -1894.423340   -627.916504  -9875.000000    114.320366
   10289           0     -1894.423340   -627.916565  -10124.99902    113.462273
   10290           0     -1894.423340   -627.916565  -10374.99902    113.301598
   10291           0     -1894.423340   -627.916565  -10625.00000    113.857231
   10292           0     -1894.423340   -627.916565  -10875.00000    115.700890
   10293           0     -1894.423340   -627.916565  -11125.00000    118.616272
   10294           0     -1894.423340   -627.916565  -11375.00000    123.443451
   10295           0     -1894.423340   -627.916565  -11625.00000    129.365921
   10296           0     -1894.423340   -627.916565  -11875.00000    137.618622
   10297           0     -1894.423340   -627.916565  -12125.00000    146.333420
   10298           0     -1894.423340   -627.916565  -12374.99902    157.298569
   10299           0     -1894.423340   -627.916565  -12625.00000    167.350342
   10300           0     -1894.423340   -627.916565  -12874.99902    181.374664
   10301           0     -1894.423340   -627.916565  -13124.99902    184.008469
   10302           0     -1894.423340   -627.916565  -13374.99902    208.055847
   10303           0     -1854.829224   -736.700439   -124.999985    121.291962
   10304           0     -1854.829224   -736.700439   -375.000000    107.232826
   10305           0     -1854.829224   -736.700439   -624.999939    100.829117
   10306           0     -1854.829224   -736.700439   -875.000000     86.757561
   10307           0     -1854.829224   -736.700439  -1125.000000     76.650566
   10308           0     -1854.829224   -736.700439  -1375.000122     65.181847
   10309           0     -1854.829224   -736.700439  -1625.000000     56.072357
   10310           0     -1854.829224   -736.700439  -1874.999756     48.025177
   10311           0     -1854.829224   -736.700439  -2125.000000     43.273544
   10312           0     -1854.829224   -736.700439  -2375.000244     41.404198
   10313           0     -1854.829224   -736.700439  -2624.999756     42.915234
   10314           0     -1854.829224   -736.700439  -2874.999512     46.677654
   10315           0     -1854.829224   -736.700439  -3124.999756     51.926418
   10316           0     -1854.829224   -736.700439  -3375.000244     57.827057
   10317           0     -1854.829224   -736.700439  -3625.000244     63.926182
   10318           0     -1854.829224   -736.700439  -3875.000244     69.918358
   10319           0     -1854.829224   -736.700439  -4125.000000     75.629456
   10320           0     -1854.829224   -736.700439  -4375.000000     80.962692
   10321           0     -1854.829224   -736.700439  -4625.000000     85.856354
   10322           0     -1854.829224   -736.700439  -4875.000000     90.284416
   10323           0     -1854.829224   -736.700439  -5124.999512     94.230522
   10324           0     -1854.829224   -736.700439  -5374.999512     97.693649
   10325           0     -1854.829224   -736.700439  -5625.000000    100.678078
   10326           0     -1854.829224   -736.700439  -5875.000488    103.190796
   10327           0     -1854.829224   -736.700439  -6125.000977    105.245766
   10328           0     -1854.829224   -736.700439  -6375.000488    106.852310
   10329           0     -1854.829224   -736.700439  -6625.000000    108.030800
   10330           0     -1854.829224   -736.700439  -6875.000488    108.791832
   10331           0     -1854.829224   -736.700439  -7124.999512    109.162193
   10332           0     -1854.829224   -736.700439  -7374.999023    109.154999
   10333           0     -1854.829224   -736.700439  -7625.000000    108.807243
   10334           0     -1854.829224   -736.700439  -7875.000000    108.139099
   10335           0     -1854.829224   -736.700439  -8124.999023    107.205589
   10336           0     -1854.829224   -736.700439  -8374.999023    106.040970
   10337           0     -1854.829224   -736.700439  -8625.000000    104.731339
   10338           0     -1854.829224   -736.700439  -8875.000977    103.336700
   10339           0     -1854.829224   -736.700439  -9125.000000    101.990654
   10340           0     -1854.829224   -736.700439  -9374.999023    100.792671
   10341           0     -1854.829224   -736.700439  -9625.000000     99.937752
   10342           0     -1854.829224   -736.700439  -9875.000000     99.574364
   10343           0     -1854.829224   -736.700439  -10125.00000     99.946877
   10344           0     -1854.829224   -736.700439  -10375.00000    101.243126
   10345           0     -1854.829224   -736.700439  -10624.99902    103.679382
   10346           0     -1854.829224   -736.700439  -10875.00097    107.460510
   10347           0     -1854.829224   -736.700439  -11125.00097    112.612717
   10348           0     -1854.829224   -736.700439  -11375.00000    119.389732
   10349           0     -1854.829224   -736.700439  -11625.00000    127.391396
   10350           0     -1854.829224   -736.700439  -11875.00000    137.112762
   10351           0     -1854.829224   -736.700439  -12125.00000    147.348038
   10352           0     -1854.829224   -736.700439  -12374.99902    159.445511
   10353           0     -1854.829224   -736.700439  -12625.00000    169.969620
   10354           0     -1854.829224   -736.700439  -12874.99902    184.813553
   10355           0     -1854.829224   -736.700439  -13124.99804    194.037979
   10356           0     -1854.829224   -736.700439  -13374.99902    198.651901
   10357           0     -1805.717773   -842.020264   -124.999985    102.217117
   10358           0     -1805.717773   -842.020264   -374.999969    102.310928
   10359           0     -1805.717773   -842.020264   -624.999939     91.616219
   10360           0     -1805.717773   -842.020264   -874.999878     81.402733
   10361           0     -1805.717773   -842.020264  -1124.999878     71.805168
   10362           0     -1805.717773   -842.020264  -1375.000244     62.816776
   10363           0     -1805.717773   -842.020264  -1625.000000     53.655029
   10364           0     -1805.717773   -842.020264  -1874.999512     45.968853
   10365           0     -1805.717773   -842.020264  -2125.000244     39.087814
   10366           0     -1805.717773   -842.020264  -2375.000244     34.375004
   10367           0     -1805.717773   -842.020264  -2624.999756     31.768311
   10368           0     -1805.717773   -842.020264  -2874.999512     31.838913
   10369           0     -1805.717773   -842.020264  -3124.999512     33.989929
   10370           0     -1805.717773   -842.020264  -3375.000488     37.639965
   10371           0     -1805.717773   -842.020264  -3625.000488     42.071789
   10372           0     -1805.717773   -842.020264  -3875.000244     46.827129
   10373           0     -1805.717773   -842.020264  -4125.000488     51.609692
   10374           0     -1805.717773   -842.020264  -4375.000488     56.226624
   10375           0     -1805.717773   -842.020264  -4625.000488     60.578056
   10376           0     -1805.717773   -842.020264  -4874.999512     64.586754
   10377           0     -1805.717773   -842.020264  -5124.999512     68.221031
   10378           0     -1805.717773   -842.020264  -5374.999023     71.452919
   10379           0     -1805.717773   -842.020264  -5625.000000     74.275688
   10380           0     -1805.717773   -842.020264  -5875.000977     76.686836
   10381           0     -1805.717773   -842.020264  -6125.000977     78.691017
   10382           0     -1805.717773   -842.020264  -6375.000000     80.302010
   10383           0     -1805.717773   -842.020264  -6625.000000     81.531487
   10384           0     -1805.717773   -842.020264  -6875.000977     82.408157
   10385           0     -1805.717773   -842.020264  -7124.999023     82.951721
   10386           0     -1805.717773   -842.020264  -7374.998535     83.207512
   10387           0     -1805.717773   -842.020264  -7625.000000     83.207909
   10388           0     -1805.717773   -842.020264  -7875.000000     83.020500
   10389           0     -1805.717773   -842.020264  -8124.999023     82.697350
   10390           0     -1805.717773   -842.020264  -8374.999023     82.335693
   10391           0     -1805.717773   -842.020264  -8625.000000     82.016220
   10392           0     -1805.717773   -842.020264  -8875.000977     81.869164
   10393           0     -1805.717773   -842.020264  -9125.000000     82.011116
   10394           0     -1805.717773   -842.020264  -9374.998047     82.591980
   10395           0     -1805.717773   -842.020264  -9625.000000     83.761826
   10396           0     -1805.717773   -842.020264  -9875.000000     85.642418
   10397           0     -1805.717773   -842.020264  -10125.00000     88.406731
   10398           0     -1805.717773   -842.020264  -10375.00000     92.059128
   10399           0     -1805.717773   -842.020264  -10624.99804     96.811554
   10400           0     -1805.717773   -842.020264  -10875.00195    102.435692
   10401           0     -1805.717773   -842.020264  -11125.00195    109.282127
   10402           0     -1805.717773   -842.020264  -11375.00000    116.741173
   10403           0     -1805.717773   -842.020264  -11625.00000    125.530678
   10404           0     -1805.717773   -842.020264  -11875.00000    134.399765
   10405           0     -1805.717773   -842.020264  -12125.00000    144.798141
   10406           0     -1805.717773   -842.020264  -12375.00000    154.631302
   10407           0     -1805.717773   -842.020264  -12625.00000    165.545914
   10408           0     -1805.717773   -842.020264  -12874.99804    176.896683
   10409           0     -1805.717773   -842.020264  -13124.99609    190.182541
   10410           0     -1805.717773   -842.020264  -13374.99804    186.497711
   10411           0     -1756.606201   -947.340210   -124.999992     95.003723
   10412           0     -1756.606201   -947.340210   -375.000000     89.322685
   10413           0     -1756.606201   -947.340210   -625.000000     84.252205
   10414           0     -1756.606201   -947.340210   -874.999939     74.811844
   10415           0     -1756.606201   -947.340210  -1125.000000     67.369759
   10416           0     -1756.606201   -947.340210  -1375.000122     59.507095
   10417           0     -1756.606201   -947.340210  -1625.000000     51.906784
   10418           0     -1756.606201   -947.340210  -1874.999756     44.421009
   10419           0     -1756.606201   -947.340210  -2125.000000     37.438034
   10420           0     -1756.606201   -947.340210  -2375.000000     30.946577
   10421           0     -1756.606201   -947.340210  -2625.000000     25.474308
   10422           0     -1756.606201   -947.340088  -2874.999756     21.372372
   10423           0     -1756.606201   -947.340088  -3125.000000     19.324087
   10424           0     -1756.606201   -947.340088  -3375.000244     19.596125
   10425           0     -1756.606201   -947.340088  -3625.000000     21.747677
   10426           0     -1756.606201   -947.340088  -3875.000000     25.059944
   10427           0     -1756.606201   -947.340088  -4125.000000     28.833881
   10428           0     -1756.606201   -947.340088  -4375.000000     32.751675
   10429           0     -1756.606201   -947.340088  -4625.000000     36.540813
   10430           0     -1756.606445   -947.340088  -4875.000000     40.128887
   10431           0     -1756.606445   -947.340088  -5125.000000     43.407478
   10432           0     -1756.606445   -947.340088  -5375.000000     46.370144
   10433           0     -1756.606445   -947.340088  -5625.000000     48.972050
   10434           0     -1756.606445   -947.340088  -5875.000488     51.227184
   10435           0     -1756.606445   -947.340088  -6125.000488     53.124470
   10436           0     -1756.606445   -947.340088  -6375.000000     54.689796
   10437           0     -1756.606445   -947.340088  -6625.000000     55.937653
   10438           0     -1756.606445   -947.340088  -6875.000000     56.906429
   10439           0     -1756.606445   -947.340088  -7124.999512     57.635910
   10440           0     -1756.606445   -947.340088  -7374.999023     58.182972
   10441           0     -1756.606445   -947.340088  -7625.000000     58.615513
   10442           0     -1756.606445   -947.340088  -7875.000000     59.016922
   10443           0     -1756.606445   -947.340088  -8125.000000     59.482922
   10444           0     -1756.606445   -947.340088  -8375.000000     60.129799
   10445           0     -1756.606445   -947.340088  -8625.000000     61.067970
   10446           0     -1756.606445   -947.340088  -8875.000000     62.442295
   10447           0     -1756.606445   -947.340088  -9125.000000     64.340752
   10448           0     -1756.606445   -947.340088  -9375.000000     66.920113
   10449           0     -1756.606445   -947.340088  -9625.000000     70.185104
   10450           0     -1756.606445   -947.340088  -9875.000000     74.297829
   10451           0     -1756.606445   -947.340088  -10124.99902     79.119568
   10452           0     -1756.606445   -947.340088  -10374.99902     84.852737
   10453           0     -1756.606445   -947.340088  -10625.00000     91.164589
   10454           0     -1756.606445   -947.340088  -10875.00000     98.381699
   10455           0     -1756.606445   -947.340088  -11125.00000    105.912575
   10456           0     -1756.606445   -947.340088  -11375.00000    114.334137
   10457           0     -1756.606445   -947.340088  -11625.00000    122.692085
   10458           0     -1756.606445   -947.340088  -11875.00000    131.980469
   10459           0     -1756.606445   -947.340088  -12125.00000    140.825226
   10460           0     -1756.606445   -947.340088  -12374.99902    150.638275
   10461           0     -1756.606445   -947.340088  -12625.00000    159.555878
   10462           0     -1756.606445   -947.340088  -12874.99902    172.237167
   10463           0     -1756.606445   -947.340088  -13124.99902    173.828171
   10464           0     -1756.606445   -947.340088  -13374.99902    191.954559
   10465           0     -1698.723511  -1047.595947   -124.999985     84.700279
   10466           0     -1698.723511  -1047.595947   -375.000000     74.929253
   10467           0     -1698.723511  -1047.595947   -624.999939     73.347672
   10468           0     -1698.723511  -1047.595947   -875.000000     65.808609
   10469           0     -1698.723511  -1047.595947  -1125.000000     60.577442
   10470           0     -1698.723511  -1047.595947  -1375.000122     54.497952
   10471           0     -1698.723511  -1047.595947  -1625.000000     49.136223
   10472           0     -1698.723511  -1047.595947  -1874.999756     43.528889
   10473           0     -1698.723511  -1047.595947  -2125.000000     38.536869
   10474           0     -1698.723511  -1047.595947  -2375.000244     33.795605
   10475           0     -1698.723511  -1047.595947  -2624.999756     29.822779
   10476           0     -1698.723511  -1047.595947  -2874.999512     26.586613
   10477           0     -1698.723511  -1047.595947  -3124.999756     24.423904
   10478           0     -1698.723511  -1047.595947  -3375.000244     23.340530
   10479           0     -1698.723511  -1047.595947  -3625.000244     23.381044
   10480           0     -1698.723511  -1047.595947  -3875.000244     24.301752
   10481           0     -1698.723511  -1047.595947  -4125.000000     25.886053
   10482           0     -1698.723511  -1047.595947  -4375.000000     27.837255
   10483           0     -1698.723511  -1047.595947  -4625.000000     29.984308
   10484           0     -1698.723511  -1047.595947  -4875.000000     32.152969
   10485           0     -1698.723511  -1047.595947  -5124.999512     34.268368
   10486           0     -1698.723511  -1047.595947  -5374.999512     36.247803
   10487           0     -1698.723511  -1047.595947  -5625.000000     38.070343
   10488           0     -1698.723511  -1047.595947  -5875.000488     39.704521
   10489           0     -1698.723511  -1047.595947  -6125.000977     41.159172
   10490           0     -1698.723511  -1047.595947  -6375.000488     42.435459
   10491           0     -1698.723511  -1047.595947  -6625.000000     43.565304
   10492           0     -1698.723511  -1047.595947  -6875.000488     44.576508
   10493           0     -1698.723511  -1047.595947  -7124.999512     45.523834
   10494           0     -1698.723511  -1047.595947  -7374.999023     46.458298
   10495           0     -1698.723511  -1047.595947  -7625.000000     47.458984
   10496           0     -1698.723511  -1047.595947  -7875.000000     48.594307
   10497           0     -1698.723511  -1047.595947  -8124.999023     49.962326
   10498           0     -1698.723511  -1047.595947  -8374.999023     51.633739
   10499           0     -1698.723511  -1047.595947  -8625.000000     53.711536
   10500           0     -1698.723511  -1047.595947  -8875.000977     56.243206
   10501           0     -1698.723511  -1047.595947  -9125.000000     59.316833
   10502           0     -1698.723511  -1047.595947  -9374.999023     62.936073
   10503           0     -1698.723511  -1047.595947  -9625.000000     67.161621
   10504           0     -1698.723511  -1047.595947  -9875.000000     71.949875
   10505           0     -1698.723511  -1047.595947  -10125.00000     77.330574
   10506           0     -1698.723511  -1047.595947  -10375.00000     83.234894
   10507           0     -1698.723511  -1047.595947  -10624.99902     89.644325
   10508           0     -1698.723511  -1047.595947  -10875.00097     96.515038
   10509           0     -1698.723511  -1047.595947  -11125.00097    103.723289
   10510           0     -1698.723511  -1047.595947  -11375.00000    111.352203
   10511           0     -1698.723511  -1047.595947  -11625.00000    119.039574
   10512           0     -1698.723511  -1047.595947  -11875.00000    127.214966
   10513           0     -1698.723511  -1047.595947  -12125.00000    135.035324
   10514           0     -1698.723511  -1047.595947  -12374.99902    143.700714
   10515           0     -1698.723511  -1047.595947  -12625.00000    151.182877
   10516           0     -1698.723511  -1047.595947  -12874.99902    161.709000
   10517           0     -1698.723511  -1047.595947  -13124.99804    166.729645
   10518           0     -1698.723511  -1047.595947  -13374.99902    169.942261
   10519           0     -1632.069580  -1142.787720   -124.999985     61.143002
   10520           0     -1632.069580  -1142.787720   -374.999969     63.240101
   10521           0     -1632.069580  -1142.787720   -624.999939     58.438393
   10522           0     -1632.069580  -1142.787720   -874.999878     54.624863
   10523           0     -1632.069580  -1142.787720  -1124.999878     50.907196
   10524           0     -1632.069580  -1142.787720  -1375.000244     47.282288
   10525           0     -1632.069580  -1142.787720  -1625.000000     43.698021
   10526           0     -1632.069580  -1142.787720  -1874.999512     40.395004
   10527           0     -1632.069580  -1142.787720  -2125.000244     37.270454
   10528           0     -1632.069580  -1142.787720  -2375.000244     34.593826
   10529           0     -1632.069580  -1142.787720  -2624.999756     32.310169
   10530           0     -1632.069580  -1142.787720  -2874.999512     30.623222
   10531           0     -1632.069580  -1142.787720  -3124.999512     29.463741
   10532           0     -1632.069580  -1142.787720  -3375.000488     28.914858
   10533           0     -1632.069580  -1142.787720  -3625.000488     28.850519
   10534           0     -1632.069580  -1142.787720  -3875.000244     29.245193
   10535           0     -1632.069580  -1142.787720  -4125.000488     29.948420
   10536           0     -1632.069580  -1142.787720  -4375.000488     30.900616
   10537           0     -1632.069580  -1142.787720  -4625.000488     31.981745
   10538           0     -1632.069580  -1142.787720  -4874.999512     33.148956
   10539           0     -1632.069580  -1142.787720  -5124.999512     34.328297
   10540           0     -1632.069580  -1142.787720  -5374.999023     35.504028
   10541           0     -1632.069580  -1142.787720  -5625.000000     36.639626
   10542           0     -1632.069580  -1142.787720  -5875.000977     37.742367
   10543           0     -1632.069580  -1142.787720  -6125.000977     38.803913
   10544           0     -1632.069580  -1142.787720  -6375.000000     39.850121
   10545           0     -1632.069580  -1142.787720  -6625.000000     40.894077
   10546           0     -1632.069580  -1142.787842  -6875.000977     41.977856
   10547           0     -1632.069580  -1142.787842  -7124.999023     43.130173
   10548           0     -1632.069580  -1142.787842  -7374.998535     44.406155
   10549           0     -1632.069580  -1142.787842  -7625.000000     45.842785
   10550           0     -1632.069580  -1142.787842  -7875.000000     47.501347
   10551           0     -1632.069580  -1142.787842  -8124.999023     49.417046
   10552           0     -1632.069580  -1142.787842  -8374.999023     51.647171
   10553           0     -1632.069580  -1142.787842  -8625.000000     54.214790
   10554           0     -1632.069580  -1142.787842  -8875.000977     57.161980
   10555           0     -1632.069580  -1142.787842  -9125.000000     60.495232
   10556           0     -1632.069580  -1142.787842  -9374.998047     64.232330
   10557           0     -1632.069580  -1142.787842  -9625.000000     68.370445
   10558           0     -1632.069580  -1142.787842  -9875.000000     72.890846
   10559           0     -1632.069580  -1142.787842  -10125.00000     77.804482
   10560           0     -1632.069580  -1142.787842  -10375.00000     83.032967
   10561           0     -1632.069580  -1142.787842  -10624.99804     88.642525
   10562           0     -1632.069580  -1142.787842  -10875.00195     94.446350
   10563           0     -1632.069580  -1142.787842  -11125.00195    100.643036
   10564           0     -1632.069580  -1142.787842  -11375.00000    106.839523
   10565           0     -1632.069580  -1142.787842  -11625.00000    113.511192
   10566           0     -1632.069580  -1142.787842  -11875.00000    119.876640
   10567           0     -1632.069580  -1142.787842  -12125.00000    126.931534
   10568           0     -1632.069580  -1142.787842  -12375.00000    133.371262
   10569           0     -1632.069580  -1142.787842  -12625.00000    140.385529
   10570           0     -1632.069580  -1142.787842  -12874.99804    147.298843
   10571           0     -1632.069580  -1142.787842  -13124.99609    156.367096
   10572           0     -1632.069580  -1142.787720  -13374.99804    150.369034
   10573           0     -1565.415527  -1237.979370   -124.999992     43.393162
   10574           0     -1565.415527  -1237.979370   -375.000000     47.762711
   10575           0     -1565.415527  -1237.979370   -625.000000     45.539108
   10576           0     -1565.415527  -1237.979370   -874.999939     43.801678
   10577           0     -1565.415527  -1237.979370  -1125.000000     42.184113
   10578           0     -1565.415527  -1237.979370  -1375.000122     40.973827
   10579           0     -1565.415527  -1237.979370  -1625.000000     39.573006
   10580           0     -1565.415527  -1237.979370  -1874.999756     38.625530
   10581           0     -1565.415527  -1237.979370  -2125.000000     37.797134
   10582           0     -1565.415527  -1237.979370  -2375.000000     37.351162
   10583           0     -1565.415527  -1237.979370  -2625.000000     37.218685
   10584           0     -1565.415527  -1237.979370  -2874.999756     37.442989
   10585           0     -1565.415527  -1237.979370  -3125.000000     37.990387
   10586           0     -1565.415527  -1237.979370  -3375.000244     38.803013
   10587           0     -1565.415527  -1237.979370  -3625.000000     39.828297
   10588           0     -1565.415527  -1237.979370  -3875.000000     40.985600
   10589           0     -1565.415527  -1237.979370  -4125.000000     42.222683
   10590           0     -1565.415527  -1237.979370  -4375.000000     43.476982
   10591           0     -1565.415527  -1237.979370  -4625.000000     44.714092
   10592           0     -1565.415527  -1237.979370  -4875.000000     45.898346
   10593           0     -1565.415527  -1237.979370  -5125.000000     47.016384
   10594           0     -1565.415527  -1237.979370  -5375.000000     48.054493
   10595           0     -1565.415527  -1237.979370  -5625.000000     49.017426
   10596           0     -1565.415527  -1237.979370  -5875.000488     49.907749
   10597           0     -1565.415527  -1237.979370  -6125.000488     50.744099
   10598           0     -1565.415527  -1237.979370  -6375.000000     51.541580
   10599           0     -1565.415527  -1237.979370  -6625.000000     52.329670
   10600           0     -1565.415527  -1237.979370  -6875.000000     53.133293
   10601           0     -1565.415527  -1237.979492  -7124.999512     53.989582
   10602           0     -1565.415527  -1237.979492  -7374.999023     54.931831
   10603           0     -1565.415527  -1237.979492  -7625.000000     55.999771
   10604           0     -1565.415527  -1237.979492  -7875.000000     57.231682
   10605           0     -1565.415527  -1237.979492  -8125.000000     58.663559
   10606           0     -1565.415527  -1237.979492  -8375.000000     60.334686
   10607           0     -1565.415527  -1237.979492  -8625.000000     62.268383
   10608           0     -1565.415527  -1237.979492  -8875.000000     64.501152
   10609           0     -1565.415527  -1237.979492  -9125.000000     67.032852
   10610           0     -1565.415527  -1237.979492  -9375.000000     69.900185
   10611           0     -1565.415527  -1237.979492  -9625.000000     73.065567
   10612           0     -1565.415527  -1237.979492  -9875.000000     76.576279
   10613           0     -1565.415527  -1237.979492  -10124.99902     80.341812
   10614           0     -1565.415527  -1237.979492  -10374.99902     84.442574
   10615           0     -1565.415527  -1237.979492  -10625.00000     88.711761
   10616           0     -1565.415527  -1237.979492  -10875.00000     93.299942
   10617           0     -1565.415527  -1237.979492  -11125.00000     97.937210
   10618           0     -1565.415527  -1237.979492  -11375.00000    102.890991
   10619           0     -1565.415527  -1237.979492  -11625.00000    107.762238
   10620           0     -1565.415527  -1237.979492  -11875.00000    112.959038
   10621           0     -1565.415527  -1237.979492  -12125.00000    118.022133
   10622           0     -1565.415527  -1237.979492  -12374.99902    123.258995
   10623           0     -1565.415527  -1237.979492  -12625.00000    128.264420
   10624           0     -1565.415527  -1237.979492  -12874.99902    135.211197
   10625           0     -1565.415527  -1237.979492  -13124.99902    134.728043
   10626           0     -1565.415527  -1237.979370  -13374.99902    144.708313
   10627           0     -1491.003052  -1326.660889   -124.999985     37.506489
   10628           0     -1491.003052  -1326.660889   -375.000000     36.461342
   10629           0     -1491.003052  -1326.660889   -624.999939     37.309620
   10630           0     -1491.003052  -1326.660889   -875.000000     36.794731
   10631           0     -1491.003052  -1326.660889  -1125.000000     36.532391
   10632           0     -1491.003052  -1326.660889  -1375.000122     36.582088
   10633           0     -1491.003052  -1326.660889  -1625.000000     36.522331
   10634           0     -1491.003052  -1326.660889  -1874.999756     36.806320
   10635           0     -1491.003052  -1326.660889  -2125.000000     37.175060
   10636           0     -1491.003052  -1326.660889  -2375.000244     37.868778
   10637           0     -1491.003052  -1326.660889  -2624.999756     38.745205
   10638           0     -1491.003052  -1326.660889  -2874.999512     39.909054
   10639           0     -1491.003052  -1326.660889  -3124.999756     41.247746
   10640           0     -1491.003052  -1326.660889  -3375.000244     42.776653
   10641           0     -1491.003052  -1326.660889  -3625.000244     44.399418
   10642           0     -1491.003052  -1326.660889  -3875.000244     46.092350
   10643           0     -1491.003052  -1326.660889  -4125.000000     47.783314
   10644           0     -1491.003052  -1326.660889  -4375.000000     49.444942
   10645           0     -1491.003052  -1326.660889  -4625.000000     51.032478
   10646           0     -1491.003052  -1326.660889  -4875.000000     52.529778
   10647           0     -1491.003052  -1326.660889  -5124.999512     53.915443
   10648           0     -1491.003052  -1326.660889  -5374.999512     55.187141
   10649           0     -1491.003052  -1326.660889  -5625.000000     56.341553
   10650           0     -1491.003052  -1326.660889  -5875.000488     57.388142
   10651           0     -1491.003052  -1326.660889  -6125.000977     58.336433
   10652           0     -1491.003052  -1326.660889  -6375.000488     59.205681
   10653           0     -1491.003052  -1326.660889  -6625.000000     60.015301
   10654           0     -1491.003052  -1326.660889  -6875.000488     60.791672
   10655           0     -1491.003052  -1326.660889  -7124.999512     61.562260
   10656           0     -1491.003052  -1326.660889  -7374.999023     62.357693
   10657           0     -1491.003052  -1326.660889  -7625.000000     63.212349
   10658           0     -1491.003052  -1326.660889  -7875.000000     64.157547
   10659           0     -1491.003052  -1326.660889  -8124.999023     65.231812
   10660           0     -1491.003052  -1326.660889  -8374.999023     66.462753
   10661           0     -1491.003052  -1326.660889  -8625.000000     67.889587
   10662           0     -1491.003052  -1326.660889  -8875.000977     69.528831
   10663           0     -1491.003052  -1326.660889  -9125.000000     71.417007
   10664           0     -1491.003052  -1326.660889  -9374.999023     73.551605
   10665           0     -1491.003052  -1326.660889  -9625.000000     75.962883
   10666           0     -1491.003052  -1326.660889  -9875.000000     78.622963
   10667           0     -1491.003052  -1326.660889  -10125.00000     81.552979
   10668           0     -1491.003052  -1326.660889  -10375.00000     84.702286
   10669           0     -1491.003052  -1326.660889  -10624.99902     88.075119
   10670           0     -1491.003052  -1326.660889  -10875.00097     91.620224
   10671           0     -1491.003052  -1326.660889  -11125.00097     95.306801
   10672           0     -1491.003052  -1326.660889  -11375.00000     99.135994
   10673           0     -1491.003052  -1326.660889  -11625.00000    102.990997
   10674           0     -1491.003052  -1326.660889  -11875.00000    107.024048
   10675           0     -1491.003052  -1326.660889  -12125.00000    110.931602
   10676           0     -1491.003052  -1326.660889  -12374.99902    115.105133
   10677           0     -1491.003052  -1326.660889  -12625.00000    118.804993
   10678           0     -1491.003052  -1326.661011  -12874.99902    123.881111
   10679           0     -1491.002930  -1326.661011  -13124.99804    125.785355
   10680           0     -1491.002930  -1326.661011  -13374.99902    125.186928
   10681           0     -1408.831787  -1408.832275   -124.999985     31.577057
   10682           0     -1408.831787  -1408.832275   -374.999969     33.354759
   10683           0     -1408.831787  -1408.832275   -624.999939     32.798512
   10684           0     -1408.831787  -1408.832275   -874.999878     33.201881
   10685           0     -1408.831787  -1408.832275  -1124.999878     33.411961
   10686           0     -1408.831787  -1408.832275  -1375.000244     33.560879
   10687           0     -1408.831787  -1408.832275  -1625.000000     33.982723
   10688           0     -1408.831787  -1408.832275  -1874.999512     34.393997
   10689           0     -1408.831787  -1408.832275  -2125.000244     35.037403
   10690           0     -1408.831787  -1408.832275  -2375.000244     35.803787
   10691           0     -1408.831787  -1408.832275  -2624.999756     36.772652
   10692           0     -1408.831787  -1408.832275  -2874.999512     37.909588
   10693           0     -1408.831787  -1408.832275  -3124.999512     39.217751
   10694           0     -1408.831787  -1408.832275  -3375.000488     40.669968
   10695           0     -1408.831787  -1408.832275  -3625.000488     42.234760
   10696           0     -1408.831787  -1408.832275  -3875.000244     43.879276
   10697           0     -1408.831787  -1408.832275  -4125.000488     45.563053
   10698           0     -1408.831787  -1408.832275  -4375.000488     47.254158
   10699           0     -1408.831787  -1408.832275  -4625.000488     48.918728
   10700           0     -1408.831787  -1408.832275  -4874.999512     50.533054
   10701           0     -1408.831787  -1408.832275  -5124.999512     52.076458
   10702           0     -1408.831787  -1408.832275  -5374.999023     53.536961
   10703           0     -1408.831787  -1408.832275  -5625.000000     54.907188
   10704           0     -1408.831787  -1408.832275  -5875.000977     56.186993
   10705           0     -1408.831787  -1408.832031  -6125.000977     57.380814
   10706           0     -1408.831787  -1408.832031  -6375.000000     58.499069
   10707           0     -1408.831787  -1408.832031  -6625.000000     59.556049
   10708           0     -1408.831787  -1408.832031  -6875.000977     60.570335
   10709           0     -1408.831787  -1408.832031  -7124.999023     61.563099
   10710           0     -1408.831787  -1408.832031  -7374.998535     62.560482
   10711           0     -1408.831787  -1408.832031  -7625.000000     63.587116
   10712           0     -1408.831787  -1408.832031  -7875.000000     64.673584
   10713           0     -1408.831787  -1408.832031  -8124.999023     65.844513
   10714           0     -1408.831787  -1408.832031  -8374.999023     67.131699
   10715           0     -1408.831787  -1408.832031  -8625.000000     68.555267
   10716           0     -1408.831787  -1408.832031  -8875.000977     70.142242
   10717           0     -1408.831787  -1408.832031  -9125.000000     71.904480
   10718           0     -1408.831787  -1408.832031  -9374.998047     73.858871
   10719           0     -1408.831787  -1408.832031  -9625.000000     76.007263
   10720           0     -1408.831787  -1408.832031  -9875.000000     78.346992
   10721           0     -1408.831787  -1408.832031  -10125.00000     80.878067
   10722           0     -1408.831787  -1408.832031  -10375.00000     83.566902
   10723           0     -1408.831787  -1408.832031  -10624.99804     86.428917
   10724           0     -1408.831787  -1408.832031  -10875.00195     89.382309
   10725           0     -1408.831787  -1408.832031  -11125.00195     92.496414
   10726           0     -1408.831787  -1408.832031  -11375.00000     95.602341
   10727           0     -1408.831787  -1408.832031  -11625.00000     98.893410
   10728           0     -1408.831787  -1408.832031  -11875.00000    102.034508
   10729           0     -1408.831787  -1408.832031  -12125.00000    105.439240
   10730           0     -1408.831787  -1408.832031  -12375.00000    108.576927
   10731           0     -1408.831787  -1408.832031  -12625.00000    111.842171
   10732           0     -1408.831787  -1408.832031  -12874.99804    114.996536
   10733           0     -1408.831787  -1408.832153  -13124.99609    120.228683
   10734           0     -1408.831787  -1408.832153  -13374.99804    113.369965
   10735           0     -1326.660645  -1491.003296   -124.999992     32.134354
   10736           0     -1326.660645  -1491.003296   -375.000000     32.821999
   10737           0     -1326.660645  -1491.003296   -625.000000     32.767071
   10738           0     -1326.660645  -1491.003296   -874.999939     32.375713
   10739           0     -1326.660645  -1491.003296  -1125.000000     32.657383
   10740           0     -1326.660645  -1491.003296  -1375.000122     32.782200
   10741           0     -1326.660645  -1491.003296  -1625.000000     33.311989
   10742           0     -1326.660645  -1491.003296  -1874.999756     33.945278
   10743           0     -1326.660645  -1491.003296  -2125.000000     34.881699
   10744           0     -1326.660645  -1491.003296  -2375.000000     35.994743
   10745           0     -1326.660645  -1491.003296  -2625.000000     37.369545
   10746           0     -1326.660645  -1491.003296  -2874.999756     38.927521
   10747           0     -1326.660645  -1491.003296  -3125.000000     40.697861
   10748           0     -1326.660645  -1491.003296  -3375.000244     42.615040
   10749           0     -1326.660645  -1491.003296  -3625.000000     44.672787
   10750           0     -1326.660645  -1491.003296  -3875.000000     46.810486
   10751           0     -1326.660645  -1491.003296  -4125.000000     49.003532
   10752           0     -1326.660645  -1491.003296  -4375.000000     51.199345
   10753           0     -1326.660645  -1491.003296  -4625.000000     53.370041
   10754           0     -1326.660645  -1491.003296  -4875.000000     55.475365
   10755           0     -1326.660645  -1491.003296  -5125.000000     57.493828
   10756           0     -1326.660645  -1491.003296  -5375.000000     59.398987
   10757           0     -1326.660645  -1491.003296  -5625.000000     61.180241
   10758           0     -1326.660645  -1491.003296  -5875.000488     62.824471
   10759           0     -1326.660645  -1491.003296  -6125.000488     64.332382
   10760           0     -1326.660645  -1491.003296  -6375.000000     65.703140
   10761           0     -1326.660645  -1491.003296  -6625.000000     66.947922
   10762           0     -1326.660645  -1491.003296  -6875.000000     68.075836
   10763           0     -1326.660645  -1491.003296  -7124.999512     69.106506
   10764           0     -1326.660645  -1491.003296  -7374.999023     70.058311
   10765           0     -1326.660645  -1491.003296  -7625.000000     70.956169
   10766           0     -1326.660645  -1491.003296  -7875.000000     71.824684
   10767           0     -1326.660645  -1491.003296  -8125.000000     72.691452
   10768           0     -1326.660645  -1491.003296  -8375.000000     73.584015
   10769           0     -1326.660645  -1491.003296  -8625.000000     74.528107
   10770           0     -1326.660645  -1491.003296  -8875.000000     75.549324
   10771           0     -1326.660645  -1491.003296  -9125.000000     76.666153
   10772           0     -1326.660645  -1491.003296  -9375.000000     77.900146
   10773           0     -1326.660645  -1491.003296  -9625.000000     79.254723
   10774           0     -1326.660645  -1491.003296  -9875.000000     80.747765
   10775           0     -1326.660645  -1491.003296  -10124.99902     82.362595
   10776           0     -1326.660645  -1491.003296  -10374.99902     84.120262
   10777           0     -1326.660645  -1491.003296  -10625.00000     85.976624
   10778           0     -1326.660645  -1491.003296  -10875.00000     87.970055
   10779           0     -1326.660645  -1491.003296  -11125.00000     90.022415
   10780           0     -1326.660645  -1491.003296  -11375.00000     92.201340
   10781           0     -1326.660645  -1491.003296  -11625.00000     94.392494
   10782           0     -1326.660645  -1491.003296  -11875.00000     96.677612
   10783           0     -1326.660645  -1491.003296  -12125.00000     98.995544
   10784           0     -1326.660645  -1491.003296  -12374.99902    101.221489
   10785           0     -1326.660645  -1491.003296  -12625.00000    103.524452
   10786           0     -1326.660645  -1491.003296  -12874.99902    106.952049
   10787           0     -1326.660645  -1491.003296  -13124.99902    105.289268
   10788           0     -1326.660645  -1491.003296  -13374.99902    110.613243
   10789           0     -1237.979126  -1565.416016   -124.999985     34.243698
   10790           0     -1237.979126  -1565.416016   -375.000000     35.532295
   10791           0     -1237.979126  -1565.416016   -624.999939     34.209366
   10792           0     -1237.979126  -1565.416016   -875.000000     33.195583
   10793           0     -1237.979126  -1565.416016  -1125.000000     32.622978
   10794           0     -1237.979126  -1565.416016  -1375.000122     32.401222
   10795           0     -1237.979126  -1565.416016  -1625.000000     32.267227
   10796           0     -1237.979126  -1565.416016  -1874.999756     32.640533
   10797           0     -1237.979126  -1565.416016  -2125.000000     33.160892
   10798           0     -1237.979126  -1565.416016  -2375.000244     34.129360
   10799           0     -1237.979126  -1565.416016  -2624.999756     35.291035
   10800           0     -1237.979126  -1565.416016  -2874.999512     36.822121
   10801           0     -1237.979126  -1565.416016  -3124.999756     38.533581
   10802           0     -1237.979126  -1565.416016  -3375.000244     40.514881
   10803           0     -1237.979126  -1565.416016  -3625.000244     42.620754
   10804           0     -1237.979126  -1565.416016  -3875.000244     44.886147
   10805           0     -1237.979126  -1565.416016  -4125.000000     47.200413
   10806           0     -1237.979126  -1565.416016  -4375.000000     49.570023
   10807           0     -1237.979126  -1565.416016  -4625.000000     51.914238
   10808           0     -1237.979126  -1565.416016  -4875.000000     54.228348
   10809           0     -1237.979126  -1565.416016  -5124.999512     56.457573
   10810           0     -1237.979126  -1565.416016  -5374.999512     58.596184
   10811           0     -1237.979126  -1565.416016  -5625.000000     60.611446
   10812           0     -1237.979126  -1565.416016  -5875.000488     62.501583
   10813           0     -1237.979126  -1565.416016  -6125.000977     64.251671
   10814           0     -1237.979126  -1565.416016  -6375.000488     65.866318
   10815           0     -1237.979126  -1565.416016  -6625.000000     67.345322
   10816           0     -1237.979126  -1565.416016  -6875.000488     68.699532
   10817           0     -1237.979126  -1565.416016  -7124.999512     69.939926
   10818           0     -1237.979126  -1565.416016  -7374.999023     71.083344
   10819           0     -1237.979126  -1565.416016  -7625.000000     72.148582
   10820           0     -1237.979126  -1565.416016  -7875.000000     73.155785
   10821           0     -1237.979126  -1565.416016  -8124.999023     74.128624
   10822           0     -1237.979126  -1565.416016  -8374.999023     75.086990
   10823           0     -1237.979126  -1565.416016  -8625.000000     76.056366
   10824           0     -1237.979126  -1565.416016  -8875.000977     77.050819
   10825           0     -1237.979126  -1565.416016  -9125.000000     78.095268
   10826           0     -1237.979126  -1565.416016  -9374.999023     79.193726
   10827           0     -1237.979126  -1565.416016  -9625.000000     80.368744
   10828           0     -1237.979126  -1565.416016  -9875.000000     81.610809
   10829           0     -1237.979126  -1565.416016  -10125.00000     82.942001
   10830           0     -1237.979126  -1565.416016  -10375.00000     84.340195
   10831           0     -1237.979126  -1565.416016  -10624.99902     85.826462
   10832           0     -1237.979126  -1565.416016  -10875.00097     87.372780
   10833           0     -1237.979126  -1565.416016  -11125.00097     88.996048
   10834           0     -1237.979126  -1565.416016  -11375.00000     90.670303
   10835           0     -1237.979126  -1565.416016  -11625.00000     92.397842
   10836           0     -1237.979126  -1565.416016  -11875.00000     94.163116
   10837           0     -1237.979126  -1565.416016  -12125.00000     95.967682
   10838           0     -1237.979126  -1565.416016  -12374.99902     97.758240
   10839           0     -1237.979126  -1565.416016  -12625.00000     99.502625
   10840           0     -1237.979126  -1565.416016  -12874.99902    101.956093
   10841           0     -1237.979126  -1565.416016  -13124.99804    102.608009
   10842           0     -1237.979126  -1565.416016  -13374.99902     99.665565
   10843           0     -1142.787354  -1632.069946   -124.999985     35.915092
   10844           0     -1142.787354  -1632.069946   -374.999969     36.150909
   10845           0     -1142.787354  -1632.069946   -624.999939     33.966923
   10846           0     -1142.787354  -1632.069946   -874.999878     32.942181
   10847           0     -1142.787354  -1632.069946  -1124.999878     31.690998
   10848           0     -1142.787354  -1632.069946  -1375.000244     31.010675
   10849           0     -1142.787354  -1632.069946  -1625.000000     30.449543
   10850           0     -1142.787354  -1632.069946  -1874.999512     30.311831
   10851           0     -1142.787354  -1632.069946  -2125.000244     30.472284
   10852           0     -1142.787354  -1632.069946  -2375.000244     30.990175
   10853           0     -1142.787354  -1632.069946  -2624.999756     31.851303
   10854           0     -1142.787354  -1632.069946  -2874.999512     33.006855
   10855           0     -1142.787354  -1632.069946  -3124.999512     34.463913
   10856           0     -1142.787354  -1632.069946  -3375.000488     36.136059
   10857           0     -1142.787354  -1632.069946  -3625.000488     38.025837
   10858           0     -1142.787354  -1632.069946  -3875.000244     40.046680
   10859           0     -1142.787354  -1632.069946  -4125.000488     42.194363
   10860           0     -1142.787354  -1632.069946  -4375.000488     44.396881
   10861           0     -1142.787354  -1632.069946  -4625.000488     46.646431
   10862           0     -1142.787354  -1632.069946  -4874.999512     48.888721
   10863           0     -1142.787354  -1632.069946  -5124.999512     51.116249
   10864           0     -1142.787354  -1632.069946  -5374.999023     53.291088
   10865           0     -1142.787354  -1632.069946  -5625.000000     55.408978
   10866           0     -1142.787354  -1632.069946  -5875.000977     57.446194
   10867           0     -1142.787354  -1632.069946  -6125.000977     59.402779
   10868           0     -1142.787354  -1632.069946  -6375.000000     61.267719
   10869           0     -1142.787354  -1632.069946  -6625.000000     63.046143
   10870           0     -1142.787354  -1632.069946  -6875.000977     64.736618
   10871           0     -1142.787354  -1632.069946  -7124.999023     66.348160
   10872           0     -1142.787354  -1632.069946  -7374.998535     67.887924
   10873           0     -1142.787354  -1632.069946  -7625.000000     69.366814
   10874           0     -1142.787354  -1632.069946  -7875.000000     70.797394
   10875           0     -1142.787354  -1632.069946  -8124.999023     72.190384
   10876           0     -1142.787354  -1632.069946  -8374.999023     73.561691
   10877           0     -1142.787354  -1632.069946  -8625.000000     74.919609
   10878           0     -1142.787354  -1632.069946  -8875.000977     76.279442
   10879           0     -1142.787354  -1632.069946  -9125.000000     77.646530
   10880           0     -1142.787354  -1632.069946  -9374.998047     79.033623
   10881           0     -1142.787354  -1632.069946  -9625.000000     80.443375
   10882           0     -1142.787354  -1632.069946  -9875.000000     81.881630
   10883           0     -1142.787354  -1632.069946  -10125.00000     83.354286
   10884           0     -1142.787354  -1632.069946  -10375.00000     84.855125
   10885           0     -1142.787354  -1632.069946  -10624.99804     86.400063
   10886           0     -1142.787354  -1632.069946  -10875.00195     87.962662
   10887           0     -1142.787354  -1632.069946  -11125.00195     89.583565
   10888           0     -1142.787354  -1632.069946  -11375.00000     91.195351
   10889           0     -1142.787354  -1632.069946  -11625.00000     92.891106
   10890           0     -1142.787354  -1632.069946  -11875.00000     94.529160
   10891           0     -1142.787354  -1632.069946  -12125.00000     96.279442
   10892           0     -1142.787354  -1632.069946  -12375.00000     97.979324
   10893           0     -1142.787354  -1632.069946  -12625.00000     99.624405
   10894           0     -1142.787354  -1632.069946  -12874.99804    101.318039
   10895           0     -1142.787354  -1632.069946  -13124.99609    104.934692
   10896           0     -1142.787354  -1632.069946  -13374.99804     97.683266
   10897           0     -1047.595581  -1698.723877   -124.999992     40.389420
   10898           0     -1047.595581  -1698.723877   -375.000000     36.318569
   10899           0     -1047.595581  -1698.723877   -625.000000     35.973682
   10900           0     -1047.595581  -1698.723877   -874.999939     33.354866
   10901           0     -1047.595581  -1698.723877  -1125.000000     32.196175
   10902           0     -1047.595581  -1698.723877  -1375.000122     30.612436
   10903           0     -1047.595581  -1698.723877  -1625.000000     29.899487
   10904           0     -1047.595581  -1698.723877  -1874.999756     29.205521
   10905           0     -1047.595581  -1698.723877  -2125.000000     29.184092
   10906           0     -1047.595581  -1698.723877  -2375.000000     29.427597
   10907           0     -1047.595581  -1698.723877  -2625.000000     30.198620
   10908           0     -1047.595581  -1698.723877  -2874.999756     31.296379
   10909           0     -1047.595581  -1698.723877  -3125.000000     32.781418
   10910           0     -1047.595581  -1698.723877  -3375.000244     34.541283
   10911           0     -1047.595581  -1698.723877  -3625.000000     36.553501
   10912           0     -1047.595581  -1698.723877  -3875.000000     38.749195
   10913           0     -1047.595581  -1698.723877  -4125.000000     41.082832
   10914           0     -1047.595581  -1698.723877  -4375.000000     43.509697
   10915           0     -1047.595581  -1698.723877  -4625.000000     45.985184
   10916           0     -1047.595581  -1698.723877  -4875.000000     48.478882
   10917           0     -1047.595581  -1698.723877  -5125.000000     50.954830
   10918           0     -1047.595581  -1698.723877  -5375.000000     53.392155
   10919           0     -1047.595581  -1698.723877  -5625.000000     55.765446
   10920           0     -1047.595581  -1698.723877  -5875.000488     58.061409
   10921           0     -1047.595581  -1698.723877  -6125.000488     60.264702
   10922           0     -1047.595581  -1698.723877  -6375.000000     62.368816
   10923           0     -1047.595581  -1698.723877  -6625.000000     64.367599
   10924           0     -1047.595581  -1698.723877  -6875.000000     66.259903
   10925           0     -1047.595581  -1698.723877  -7124.999512     68.047256
   10926           0     -1047.595581  -1698.723877  -7374.999023     69.733376
   10927           0     -1047.595581  -1698.723877  -7625.000000     71.325516
   10928           0     -1047.595581  -1698.723877  -7875.000000     72.830284
   10929           0     -1047.595581  -1698.723877  -8125.000000     74.259270
   10930           0     -1047.595581  -1698.723877  -8375.000000     75.620789
   10931           0     -1047.595581  -1698.723877  -8625.000000     76.929047
   10932           0     -1047.595581  -1698.723877  -8875.000000     78.192085
   10933           0     -1047.595581  -1698.723877  -9125.000000     79.425652
   10934           0     -1047.595581  -1698.723877  -9375.000000     80.637749
   10935           0     -1047.595581  -1698.723877  -9625.000000     81.842674
   10936           0     -1047.595581  -1698.723877  -9875.000000     83.048332
   10937           0     -1047.595581  -1698.723877  -10124.99902     84.265610
   10938           0     -1047.595581  -1698.723877  -10374.99902     85.504379
   10939           0     -1047.595581  -1698.723877  -10625.00000     86.764229
   10940           0     -1047.595581  -1698.723877  -10875.00000     88.064697
   10941           0     -1047.595581  -1698.723877  -11125.00000     89.382988
   10942           0     -1047.595581  -1698.723877  -11375.00000     90.760742
   10943           0     -1047.595581  -1698.723877  -11625.00000     92.138840
   10944           0     -1047.595581  -1698.723877  -11875.00000     93.590286
   10945           0     -1047.595581  -1698.723877  -12125.00000     95.057724
   10946           0     -1047.595581  -1698.723877  -12374.99902     96.511749
   10947           0     -1047.595581  -1698.723877  -12625.00000     97.964172
   10948           0     -1047.595581  -1698.723877  -12874.99902    100.570786
   10949           0     -1047.595581  -1698.723877  -13124.99902     98.499565
   10950           0     -1047.595581  -1698.723877  -13374.99902    102.288345
   10951           0      -947.339722  -1756.606689   -124.999985     37.365639
   10952           0      -947.339722  -1756.606689   -375.000000     36.641838
   10953           0      -947.339722  -1756.606689   -624.999939     34.483402
   10954           0      -947.339722  -1756.606689   -875.000000     32.057304
   10955           0      -947.339722  -1756.606689  -1125.000000     30.353176
   10956           0      -947.339722  -1756.606689  -1375.000122     28.755941
   10957           0      -947.339722  -1756.606689  -1625.000000     27.526644
   10958           0      -947.339722  -1756.606689  -1874.999756     26.760071
   10959           0      -947.339722  -1756.606689  -2125.000000     26.351227
   10960           0      -947.339722  -1756.606689  -2375.000244     26.520102
   10961           0      -947.339722  -1756.606689  -2624.999756     27.063196
   10962           0      -947.339722  -1756.606689  -2874.999512     28.145504
   10963           0      -947.339722  -1756.606689  -3124.999756     29.549875
   10964           0      -947.339722  -1756.606689  -3375.000244     31.360945
   10965           0      -947.339722  -1756.606689  -3625.000244     33.397663
   10966           0      -947.339722  -1756.606689  -3875.000244     35.692883
   10967           0      -947.339722  -1756.606689  -4125.000000     38.116070
   10968           0      -947.339722  -1756.606689  -4375.000000     40.674343
   10969           0      -947.339722  -1756.606689  -4625.000000     43.279957
   10970           0      -947.339722  -1756.606689  -4875.000000     45.928555
   10971           0      -947.339722  -1756.606689  -5124.999512     48.563229
   10972           0      -947.339722  -1756.606689  -5374.999512     51.175938
   10973           0      -947.339722  -1756.606689  -5625.000000     53.731079
   10974           0      -947.339722  -1756.606689  -5875.000488     56.220848
   10975           0      -947.339722  -1756.606689  -6125.000977     58.624359
   10976           0      -947.339722  -1756.606689  -6375.000488     60.936680
   10977           0      -947.339722  -1756.606689  -6625.000000     63.147575
   10978           0      -947.339722  -1756.606689  -6875.000488     65.255585
   10979           0      -947.339722  -1756.606689  -7124.999512     67.257637
   10980           0      -947.339722  -1756.606689  -7374.999023     69.157028
   10981           0      -947.339722  -1756.606689  -7625.000000     70.955307
   10982           0      -947.339722  -1756.606689  -7875.000000     72.659790
   10983           0      -947.339722  -1756.606689  -8124.999023     74.275269
   10984           0      -947.339722  -1756.606689  -8374.999023     75.812920
   10985           0      -947.339722  -1756.606689  -8625.000000     77.279625
   10986           0      -947.339722  -1756.606689  -8875.000977     78.689178
   10987           0      -947.339722  -1756.606689  -9125.000000     80.049675
   10988           0      -947.339722  -1756.606689  -9374.999023     81.377602
   10989           0      -947.339722  -1756.606689  -9625.000000     82.680199
   10990           0      -947.339722  -1756.606689  -9875.000000     83.975098
   10991           0      -947.339722  -1756.606689  -10125.00000     85.267532
   10992           0      -947.339722  -1756.606689  -10375.00000     86.575340
   10993           0      -947.339722  -1756.606689  -10624.99902     87.896927
   10994           0      -947.339722  -1756.606689  -10875.00097     89.251892
   10995           0      -947.339722  -1756.606689  -11125.00097     90.629379
   10996           0      -947.339722  -1756.606689  -11375.00000     92.048882
   10997           0      -947.339722  -1756.606689  -11625.00000     93.498016
   10998           0      -947.339722  -1756.606689  -11875.00000     94.978439
   10999           0      -947.339722  -1756.606689  -12125.00000     96.531380
   11000           0      -947.339722  -1756.606689  -12374.99902     98.047340
   11001           0      -947.339722  -1756.606689  -12625.00000     99.548958
   11002           0      -947.339722  -1756.606689  -12874.99902    101.908104
   11003           0      -947.339722  -1756.606689  -13124.99804    102.210854
   11004           0      -947.339722  -1756.606689  -13374.99902     98.992752
   11005           0      -842.019836  -1805.718140   -124.999985     33.180260
   11006           0      -842.019836  -1805.718140   -374.999969     33.129257
   11007           0      -842.019836  -1805.718140   -624.999939     30.208939
   11008           0      -842.019836  -1805.718140   -874.999878     28.647749
   11009           0      -842.019836  -1805.718140  -1124.999878     26.684334
   11010           0      -842.019836  -1805.718140  -1375.000244     25.489317
   11011           0      -842.019836  -1805.718140  -1625.000000     24.301945
   11012           0      -842.019836  -1805.718140  -1874.999512     23.713806
   11013           0      -842.019836  -1805.718140  -2125.000244     23.468483
   11014           0      -842.019836  -1805.718140  -2375.000244     23.722048
   11015           0      -842.019836  -1805.718140  -2624.999756     24.438581
   11016           0      -842.019836  -1805.718140  -2874.999512     25.554245
   11017           0      -842.019836  -1805.718140  -3124.999512     27.079390
   11018           0      -842.019836  -1805.718140  -3375.000488     28.881939
   11019           0      -842.019836  -1805.718140  -3625.000488     30.972668
   11020           0      -842.019836  -1805.718140  -3875.000244     33.230270
   11021           0      -842.019836  -1805.718140  -4125.000488     35.660480
   11022           0      -842.019836  -1805.718140  -4375.000488     38.173424
   11023           0      -842.019836  -1805.718140  -4625.000488     40.770157
   11024           0      -842.019836  -1805.718140  -4874.999512     43.388809
   11025           0      -842.019836  -1805.718140  -5124.999512     46.027718
   11026           0      -842.019836  -1805.718140  -5374.999023     48.645203
   11027           0      -842.019836  -1805.718140  -5625.000000     51.238869
   11028           0      -842.019836  -1805.718140  -5875.000977     53.781170
   11029           0      -842.019836  -1805.718140  -6125.000977     56.270088
   11030           0      -842.019836  -1805.718140  -6375.000000     58.688412
   11031           0      -842.019836  -1805.718140  -6625.000000     61.036182
   11032           0      -842.019836  -1805.718140  -6875.000977     63.303341
   11033           0      -842.019836  -1805.718140  -7124.999023     65.491898
   11034           0      -842.019836  -1805.718140  -7374.998535     67.598305
   11035           0      -842.019836  -1805.718140  -7625.000000     69.626709
   11036           0      -842.019836  -1805.718140  -7875.000000     71.578209
   11037           0      -842.019836  -1805.718140  -8124.999023     73.459389
   11038           0      -842.019836  -1805.718140  -8374.999023     75.274994
   11039           0      -842.019775  -1805.718140  -8625.000000     77.034904
   11040           0      -842.019775  -1805.718140  -8875.000977     78.744171
   11041           0      -842.019775  -1805.718140  -9125.000000     80.417297
   11042           0      -842.019775  -1805.718140  -9374.998047     82.057442
   11043           0      -842.019775  -1805.718140  -9625.000000     83.685097
   11044           0      -842.019775  -1805.718140  -9875.000000     85.294785
   11045           0      -842.019775  -1805.718140  -10125.00000     86.918671
   11046           0      -842.019775  -1805.718140  -10375.00000     88.533813
   11047           0      -842.019775  -1805.718140  -10624.99804     90.190620
   11048           0      -842.019775  -1805.718140  -10875.00195     91.836990
   11049           0      -842.019775  -1805.718140  -11125.00195     93.557304
   11050           0      -842.019775  -1805.718140  -11375.00000     95.245979
   11051           0      -842.019775  -1805.718140  -11625.00000     97.054749
   11052           0      -842.019775  -1805.718140  -11875.00000     98.787109
   11053           0      -842.019775  -1805.718140  -12125.00000    100.686081
   11054           0      -842.019775  -1805.718140  -12375.00000    102.534775
   11055           0      -842.019775  -1805.718140  -12625.00000    104.325615
   11056           0      -842.019775  -1805.718140  -12874.99804    106.341850
   11057           0      -842.019775  -1805.718140  -13124.99609    110.173149
   11058           0      -842.019836  -1805.718140  -13374.99804    102.408630
   11059           0      -736.699951  -1854.829468   -124.999992     32.427994
   11060           0      -736.699951  -1854.829468   -375.000000     28.674118
   11061           0      -736.699951  -1854.829468   -625.000000     28.143446
   11062           0      -736.699951  -1854.829468   -874.999939     25.604900
   11063           0      -736.699951  -1854.829468  -1125.000000     24.298765
   11064           0      -736.699951  -1854.829468  -1375.000122     22.623529
   11065           0      -736.699951  -1854.829468  -1625.000000     21.739868
   11066           0      -736.699951  -1854.829468  -1874.999756     20.887428
   11067           0      -736.699951  -1854.829468  -2125.000000     20.723158
   11068           0      -736.699951  -1854.829468  -2375.000000     20.863663
   11069           0      -736.699951  -1854.829468  -2625.000000     21.575310
   11070           0      -736.699951  -1854.829468  -2874.999756     22.664942
   11071           0      -736.699951  -1854.829468  -3125.000000     24.169842
   11072           0      -736.699951  -1854.829468  -3375.000244     25.984058
   11073           0      -736.699951  -1854.829468  -3625.000000     28.061300
   11074           0      -736.699951  -1854.829468  -3875.000000     30.345173
   11075           0      -736.699951  -1854.829468  -4125.000000     32.777641
   11076           0      -736.699951  -1854.829468  -4375.000000     35.328438
   11077           0      -736.699951  -1854.829468  -4625.000000     37.948624
   11078           0      -736.699951  -1854.829468  -4875.000000     40.619640
   11079           0      -736.699951  -1854.829468  -5125.000000     43.304413
   11080           0      -736.699951  -1854.829468  -5375.000000     45.989491
   11081           0      -736.699951  -1854.829468  -5625.000000     48.648628
   11082           0      -736.699951  -1854.829468  -5875.000488     51.271584
   11083           0      -736.699951  -1854.829468  -6125.000488     53.840843
   11084           0      -736.699951  -1854.829468  -6375.000000     56.349770
   11085           0      -736.699951  -1854.829468  -6625.000000     58.788631
   11086           0      -736.699951  -1854.829468  -6875.000000     61.153927
   11087           0      -736.699951  -1854.829468  -7124.999512     63.442482
   11088           0      -736.699951  -1854.829468  -7374.999023     65.655357
   11089           0      -736.699951  -1854.829468  -7625.000000     67.794403
   11090           0      -736.699951  -1854.829468  -7875.000000     69.864494
   11091           0      -736.699951  -1854.829468  -8125.000000     71.871735
   11092           0      -736.699951  -1854.829468  -8375.000000     73.824821
   11093           0      -736.699951  -1854.829468  -8625.000000     75.732170
   11094           0      -736.699951  -1854.829468  -8875.000000     77.604630
   11095           0      -736.699951  -1854.829468  -9125.000000     79.451302
   11096           0      -736.699951  -1854.829468  -9375.000000     81.285599
   11097           0      -736.699951  -1854.829468  -9625.000000     83.112320
   11098           0      -736.699951  -1854.829468  -9875.000000     84.948357
   11099           0      -736.699951  -1854.829468  -10124.99902     86.789871
   11100           0      -736.699890  -1854.829468  -10374.99902     88.662987
   11101           0      -736.699890  -1854.829468  -10625.00000     90.542557
   11102           0      -736.699890  -1854.829468  -10875.00000     92.481247
   11103           0      -736.699890  -1854.829468  -11125.00000     94.410522
   11104           0      -736.699890  -1854.829468  -11375.00000     96.440758
   11105           0      -736.699890  -1854.829468  -11625.00000     98.418098
   11106           0      -736.699890  -1854.829468  -11875.00000    100.561485
   11107           0      -736.699890  -1854.829468  -12125.00000    102.600731
   11108           0      -736.699890  -1854.829468  -12374.99902    104.832161
   11109           0      -736.699890  -1854.829468  -12625.00000    106.779869
   11110           0      -736.699890  -1854.829468  -12874.99902    110.388252
   11111           0      -736.699890  -1854.829468  -13124.99902    108.570953
   11112           0      -736.699951  -1854.829468  -13374.99902    112.694824
   11113           0      -627.916016  -1894.423584   -124.999985     26.784594
   11114           0      -627.916016  -1894.423584   -375.000000     25.744436
   11115           0      -627.916016  -1894.423584   -624.999939     23.903017
   11116           0      -627.916016  -1894.423584   -875.000000     22.150679
   11117           0      -627.916016  -1894.423584  -1125.000000     20.748751
   11118           0      -627.916016  -1894.423584  -1375.000122     19.513186
   11119           0      -627.916016  -1894.423584  -1625.000000     18.592237
   11120           0      -627.916016  -1894.423584  -1874.999756     18.105635
   11121           0      -627.916016  -1894.423584  -2125.000000     17.958702
   11122           0      -627.916016  -1894.423584  -2375.000244     18.367943
   11123           0      -627.916016  -1894.423584  -2624.999756     19.128038
   11124           0      -627.916016  -1894.423584  -2874.999512     20.380905
   11125           0      -627.916016  -1894.423584  -3124.999756     21.918419
   11126           0      -627.916016  -1894.423584  -3375.000244     23.802319
   11127           0      -627.916016  -1894.423584  -3625.000244     25.880276
   11128           0      -627.916016  -1894.423584  -3875.000244     28.173347
   11129           0      -627.916016  -1894.423584  -4125.000000     30.585527
   11130           0      -627.916016  -1894.423584  -4375.000000     33.118874
   11131           0      -627.916016  -1894.423584  -4625.000000     35.714497
   11132           0      -627.916016  -1894.423584  -4875.000000     38.365341
   11133           0      -627.916016  -1894.423584  -5124.999512     41.034294
   11134           0      -627.916016  -1894.423584  -5374.999512     43.711063
   11135           0      -627.916016  -1894.423584  -5625.000000     46.371815
   11136           0      -627.916016  -1894.423584  -5875.000488     49.006496
   11137           0      -627.916016  -1894.423584  -6125.000977     51.600182
   11138           0      -627.916016  -1894.423584  -6375.000488     54.146099
   11139           0      -627.916016  -1894.423584  -6625.000000     56.636078
   11140           0      -627.916016  -1894.423584  -6875.000488     59.067757
   11141           0      -627.916016  -1894.423584  -7124.999512     61.438019
   11142           0      -627.916016  -1894.423584  -7374.999023     63.750439
   11143           0      -627.916016  -1894.423584  -7625.000000     66.005363
   11144           0      -627.916016  -1894.423584  -7875.000000     68.212021
   11145           0      -627.916016  -1894.423584  -8124.999023     70.372513
   11146           0      -627.916016  -1894.423584  -8374.999023     72.501968
   11147           0      -627.916016  -1894.423584  -8625.000000     74.601501
   11148           0      -627.916016  -1894.423584  -8875.000977     76.691330
   11149           0      -627.916016  -1894.423584  -9125.000000     78.768181
   11150           0      -627.916016  -1894.423584  -9374.999023     80.858284
   11151           0      -627.916016  -1894.423584  -9625.000000     82.949120
   11152           0      -627.916016  -1894.423584  -9875.000000     85.074142
   11153           0      -627.916016  -1894.423584  -10125.00000     87.207359
   11154           0      -627.916016  -1894.423584  -10375.00000     89.394287
   11155           0      -627.916016  -1894.423584  -10624.99902     91.587730
   11156           0      -627.916016  -1894.423584  -10875.00097     93.854866
   11157           0      -627.916016  -1894.423584  -11125.00097     96.117950
   11158           0      -627.916016  -1894.423584  -11375.00000     98.479309
   11159           0      -627.916016  -1894.423584  -11625.00000    100.818787
   11160           0      -627.916016  -1894.423584  -11875.00000    103.273376
   11161           0      -627.916016  -1894.423584  -12125.00000    105.715927
   11162           0      -627.916016  -1894.423584  -12374.99902    108.258423
   11163           0      -627.916016  -1894.423584  -12625.00000    110.570190
   11164           0      -627.916016  -1894.423584  -12874.99902    114.333038
   11165           0      -627.916016  -1894.423584  -13124.99804    114.700157
   11166           0      -627.916016  -1894.423584  -13374.99902    113.130989
   11167           0      -515.667969  -1924.500366   -124.999985     21.167685
   11168           0      -515.667969  -1924.500366   -374.999969     21.317190
   11169           0      -515.667969  -1924.500366   -624.999939     19.217051
   11170           0      -515.667969  -1924.500366   -874.999878     18.519894
   11171           0      -515.667969  -1924.500366  -1124.999878     17.407040
   11172           0      -515.667969  -1924.500366  -1375.000244     16.971523
   11173           0      -515.667969  -1924.500366  -1625.000000     16.628702
   11174           0      -515.667969  -1924.500366  -1874.999512     16.763781
   11175           0      -515.667969  -1924.500366  -2125.000244     17.233215
   11176           0      -515.667969  -1924.500366  -2375.000244     18.059126
   11177           0      -515.667969  -1924.500366  -2624.999756     19.243553
   11178           0      -515.667969  -1924.500366  -2874.999512     20.678068
   11179           0      -515.667969  -1924.500366  -3124.999512     22.392752
   11180           0      -515.667969  -1924.500366  -3375.000488     24.272467
   11181           0      -515.667969  -1924.500366  -3625.000488     26.343676
   11182           0      -515.667969  -1924.500366  -3875.000244     28.520555
   11183           0      -515.667969  -1924.500366  -4125.000488     30.819096
   11184           0      -515.667969  -1924.500366  -4375.000488     33.181488
   11185           0      -515.667969  -1924.500366  -4625.000488     35.614315
   11186           0      -515.667969  -1924.500366  -4874.999512     38.079006
   11187           0      -515.667969  -1924.500366  -5124.999512     40.576542
   11188           0      -515.667969  -1924.500366  -5374.999023     43.080879
   11189           0      -515.667969  -1924.500366  -5625.000000     45.590572
   11190           0      -515.667969  -1924.500366  -5875.000977     48.088432
   11191           0      -515.667969  -1924.500366  -6125.000977     50.573143
   11192           0      -515.667969  -1924.500366  -6375.000000     53.033817
   11193           0      -515.667969  -1924.500366  -6625.000000     55.471760
   11194           0      -515.667969  -1924.500366  -6875.000977     57.880814
   11195           0      -515.667969  -1924.500366  -7124.999023     60.265156
   11196           0      -515.667969  -1924.500366  -7374.998535     62.622864
   11197           0      -515.667969  -1924.500366  -7625.000000     64.961456
   11198           0      -515.667969  -1924.500366  -7875.000000     67.281143
   11199           0      -515.667969  -1924.500366  -8124.999023     69.593170
   11200           0      -515.667969  -1924.500366  -8374.999023     71.897614
   11201           0      -515.667969  -1924.500366  -8625.000000     74.210655
   11202           0      -515.667969  -1924.500366  -8875.000977     76.527428
   11203           0      -515.667969  -1924.500366  -9125.000000     78.870720
   11204           0      -515.667969  -1924.500366  -9374.998047     81.226700
   11205           0      -515.667969  -1924.500366  -9625.000000     83.628639
   11206           0      -515.667969  -1924.500366  -9875.000000     86.044411
   11207           0      -515.667969  -1924.500366  -10125.00000     88.528030
   11208           0      -515.667969  -1924.500366  -10375.00000     91.016678
   11209           0      -515.667969  -1924.500366  -10624.99804     93.600586
   11210           0      -515.667969  -1924.500366  -10875.00195     96.165344
   11211           0      -515.667969  -1924.500366  -11125.00195     98.866173
   11212           0      -515.667969  -1924.500366  -11375.00000    101.501747
   11213           0      -515.667969  -1924.500366  -11625.00000    104.341492
   11214           0      -515.667969  -1924.500366  -11875.00000    107.030128
   11215           0      -515.667969  -1924.500366  -12125.00000    110.017799
   11216           0      -515.667969  -1924.500366  -12375.00000    112.843384
   11217           0      -515.667969  -1924.500366  -12625.00000    115.684113
   11218           0      -515.667969  -1924.500366  -12874.99804    118.916138
   11219           0      -515.667969  -1924.500366  -13124.99609    123.849739
   11220           0      -515.667969  -1924.500366  -13374.99804    115.715775
   11221           0      -403.420013  -1954.577148   -124.999992     18.120785
   11222           0      -403.420013  -1954.577148   -375.000000     16.128847
   11223           0      -403.420013  -1954.577148   -625.000000     15.964954
   11224           0      -403.420013  -1954.577148   -874.999939     14.615705
   11225           0      -403.420013  -1954.577148  -1125.000000     14.121656
   11226           0      -403.420013  -1954.577148  -1375.000122     13.395834
   11227           0      -403.420013  -1954.577148  -1625.000000     13.285882
   11228           0      -403.420013  -1954.577148  -1874.999756     13.245772
   11229           0      -403.420013  -1954.577148  -2125.000000     13.715008
   11230           0      -403.420013  -1954.577148  -2375.000000     14.415493
   11231           0      -403.420013  -1954.577148  -2625.000000     15.484750
   11232           0      -403.420013  -1954.577148  -2874.999756     16.791613
   11233           0      -403.420013  -1954.577148  -3125.000000     18.337336
   11234           0      -403.420013  -1954.577148  -3375.000244     20.065586
   11235           0      -403.420013  -1954.577148  -3625.000000     21.943079
   11236           0      -403.420013  -1954.577148  -3875.000000     23.948431
   11237           0      -403.420013  -1954.577148  -4125.000000     26.048269
   11238           0      -403.420013  -1954.577148  -4375.000000     28.234648
   11239           0      -403.420013  -1954.577148  -4625.000000     30.481598
   11240           0      -403.420013  -1954.577148  -4875.000000     32.785149
   11241           0      -403.420013  -1954.577148  -5125.000000     35.126888
   11242           0      -403.420013  -1954.577148  -5375.000000     37.503597
   11243           0      -403.420013  -1954.577148  -5625.000000     39.903587
   11244           0      -403.420013  -1954.577148  -5875.000488     42.324070
   11245           0      -403.420013  -1954.577148  -6125.000488     44.758316
   11246           0      -403.420013  -1954.577148  -6375.000000     47.205509
   11247           0      -403.420013  -1954.577148  -6625.000000     49.663177
   11248           0      -403.420013  -1954.577148  -6875.000000     52.132042
   11249           0      -403.420013  -1954.577148  -7124.999512     54.612484
   11250           0      -403.420013  -1954.577148  -7374.999023     57.108730
   11251           0      -403.420013  -1954.577148  -7625.000000     59.621723
   11252           0      -403.420013  -1954.577148  -7875.000000     62.158417
   11253           0      -403.420013  -1954.577148  -8125.000000     64.718971
   11254           0      -403.420013  -1954.577148  -8375.000000     67.313606
   11255           0      -403.420013  -1954.577148  -8625.000000     69.939125
   11256           0      -403.420013  -1954.577148  -8875.000000     72.608307
   11257           0      -403.420013  -1954.577148  -9125.000000     75.313042
   11258           0      -403.420013  -1954.577148  -9375.000000     78.071548
   11259           0      -403.420013  -1954.577148  -9625.000000     80.864990
   11260           0      -403.420013  -1954.577148  -9875.000000     83.722076
   11261           0      -403.420013  -1954.577148  -10124.99902     86.607536
   11262           0      -403.420013  -1954.577148  -10374.99902     89.571594
   11263           0      -403.420013  -1954.577148  -10625.00000     92.545303
   11264           0      -403.420013  -1954.577148  -10875.00000     95.625252
   11265           0      -403.419983  -1954.577148  -11125.00000     98.676918
   11266           0      -403.419983  -1954.577148  -11375.00000    101.889641
   11267           0      -403.419983  -1954.577148  -11625.00000    104.997223
   11268           0      -403.419983  -1954.577148  -11875.00000    108.363243
   11269           0      -403.419983  -1954.577148  -12125.00000    111.523277
   11270           0      -403.419983  -1954.577148  -12374.99902    115.038536
   11271           0      -403.419983  -1954.577148  -12625.00000    118.025146
   11272           0      -403.419983  -1954.577148  -12874.99902    123.176254
   11273           0      -403.419983  -1954.577148  -13124.99902    122.093483
   11274           0      -403.420013  -1954.577148  -13374.99902    126.897964
   11275           0      -289.413330  -1974.679565   -124.999985     14.382200
   11276           0      -289.413330  -1974.679565   -375.000000     13.955305
   11277           0      -289.413330  -1974.679565   -624.999939     12.668971
   11278           0      -289.413330  -1974.679565   -875.000000     12.208702
   11279           0      -289.413330  -1974.679565  -1125.000000     11.585770
   11280           0      -289.413330  -1974.679565  -1375.000122     11.359740
   11281           0      -289.413330  -1974.679565  -1625.000000     11.256603
   11282           0      -289.413330  -1974.679565  -1874.999756     11.587795
   11283           0      -289.413330  -1974.679565  -2125.000000     12.098623
   11284           0      -289.413330  -1974.679565  -2375.000244     13.008855
   11285           0      -289.413330  -1974.679565  -2624.999756     14.089929
   11286           0      -289.413330  -1974.679565  -2874.999512     15.458128
   11287           0      -289.413330  -1974.679565  -3124.999756     16.958473
   11288           0      -289.413330  -1974.679565  -3375.000244     18.644560
   11289           0      -289.413330  -1974.679565  -3625.000244     20.427011
   11290           0      -289.413330  -1974.679565  -3875.000244     22.328522
   11291           0      -289.413330  -1974.679565  -4125.000000     24.301193
   11292           0      -289.413330  -1974.679565  -4375.000000     26.352911
   11293           0      -289.413330  -1974.679565  -4625.000000     28.458792
   11294           0      -289.413330  -1974.679565  -4875.000000     30.620104
   11295           0      -289.413330  -1974.679565  -5124.999512     32.824329
   11296           0      -289.413330  -1974.679565  -5374.999512     35.070442
   11297           0      -289.413330  -1974.679565  -5625.000000     37.352879
   11298           0      -289.413330  -1974.679565  -5875.000488     39.670464
   11299           0      -289.413330  -1974.679565  -6125.000977     42.021660
   11300           0      -289.413330  -1974.679565  -6375.000488     44.406994
   11301           0      -289.413330  -1974.679565  -6625.000000     46.827374
   11302           0      -289.413330  -1974.679565  -6875.000488     49.285126
   11303           0      -289.413330  -1974.679565  -7124.999512     51.781914
   11304           0      -289.413330  -1974.679565  -7374.999023     54.322887
   11305           0      -289.413330  -1974.679565  -7625.000000     56.908577
   11306           0      -289.413330  -1974.679565  -7875.000000     59.546360
   11307           0      -289.413330  -1974.679565  -8124.999023     62.233871
   11308           0      -289.413330  -1974.679565  -8374.999023     64.981575
   11309           0      -289.413330  -1974.679565  -8625.000000     67.781792
   11310           0      -289.413330  -1974.679565  -8875.000977     70.648674
   11311           0      -289.413330  -1974.679565  -9125.000000     73.566681
   11312           0      -289.413330  -1974.679565  -9374.999023     76.557533
   11313           0      -289.413361  -1974.679565  -9625.000000     79.593124
   11314           0      -289.413361  -1974.679565  -9875.000000     82.708084
   11315           0      -289.413361  -1974.679565  -10125.00000     85.856026
   11316           0      -289.413361  -1974.679565  -10375.00000     89.094933
   11317           0      -289.413361  -1974.679565  -10624.99902     92.345627
   11318           0      -289.413361  -1974.679565  -10875.00097     95.709808
   11319           0      -289.413361  -1974.679565  -11125.00097     99.052307
   11320           0      -289.413361  -1974.679565  -11375.00000    102.547234
   11321           0      -289.413361  -1974.679565  -11625.00000    105.966766
   11322           0      -289.413361  -1974.679565  -11875.00000    109.597595
   11323           0      -289.413361  -1974.679565  -12125.00000    113.097633
   11324           0      -289.413361  -1974.679565  -12374.99902    116.874275
   11325           0      -289.413361  -1974.679565  -12625.00000    120.169106
   11326           0      -289.413361  -1974.679565  -12874.99902    125.482315
   11327           0      -289.413361  -1974.679565  -13124.99804    125.942993
   11328           0      -289.413330  -1974.679565  -13374.99902    126.866211
   11329           0      -173.647873  -1984.807617   -124.999985     11.680647
   11330           0      -173.647873  -1984.807617   -374.999969     12.515780
   11331           0      -173.647873  -1984.807617   -624.999939     11.413732
   11332           0      -173.647873  -1984.807617   -874.999878     11.528388
   11333           0      -173.647873  -1984.807617  -1124.999878     11.440959
   11334           0      -173.647873  -1984.807617  -1375.000244     11.763322
   11335           0      -173.647873  -1984.807617  -1625.000000     12.275111
   11336           0      -173.647873  -1984.807617  -1874.999512     13.020943
   11337           0      -173.647873  -1984.807617  -2125.000244     14.010475
   11338           0      -173.647873  -1984.807617  -2375.000244     15.150673
   11339           0      -173.647873  -1984.807617  -2624.999756     16.491432
   11340           0      -173.647873  -1984.807617  -2874.999512     17.931501
   11341           0      -173.647873  -1984.807617  -3124.999512     19.514666
   11342           0      -173.647873  -1984.807617  -3375.000488     21.166645
   11343           0      -173.647873  -1984.807617  -3625.000488     22.916346
   11344           0      -173.647873  -1984.807617  -3875.000244     24.716900
   11345           0      -173.647873  -1984.807617  -4125.000488     26.585194
   11346           0      -173.647888  -1984.807617  -4375.000488     28.494215
   11347           0      -173.647888  -1984.807617  -4625.000488     30.453594
   11348           0      -173.647888  -1984.807617  -4874.999512     32.448856
   11349           0      -173.647888  -1984.807617  -5124.999512     34.486397
   11350           0      -173.647888  -1984.807617  -5374.999023     36.559364
   11351           0      -173.647888  -1984.807617  -5625.000000     38.673107
   11352           0      -173.647888  -1984.807617  -5875.000977     40.825512
   11353           0      -173.647888  -1984.807617  -6125.000977     43.022026
   11354           0      -173.647888  -1984.807617  -6375.000000     45.262836
   11355           0      -173.647888  -1984.807617  -6625.000000     47.554592
   11356           0      -173.647873  -1984.807617  -6875.000977     49.898090
   11357           0      -173.647873  -1984.807617  -7124.999023     52.300571
   11358           0      -173.647873  -1984.807617  -7374.998535     54.762325
   11359           0      -173.647888  -1984.807617  -7625.000000     57.291298
   11360           0      -173.647888  -1984.807617  -7875.000000     59.885120
   11361           0      -173.647888  -1984.807617  -8124.999023     62.553051
   11362           0      -173.647888  -1984.807617  -8374.999023     65.287994
   11363           0      -173.647888  -1984.807617  -8625.000000     68.103088
   11364           0      -173.647888  -1984.807617  -8875.000977     70.982330
   11365           0      -173.647888  -1984.807617  -9125.000000     73.946541
   11366           0      -173.647888  -1984.807617  -9374.998047     76.967209
   11367           0      -173.647888  -1984.807617  -9625.000000     80.079918
   11368           0      -173.647888  -1984.807617  -9875.000000     83.233658
   11369           0      -173.647888  -1984.807617  -10125.00000     86.492516
   11370           0      -173.647888  -1984.807617  -10375.00000     89.768372
   11371           0      -173.647888  -1984.807617  -10624.99804     93.172737
   11372           0      -173.647888  -1984.807617  -10875.00195     96.555527
   11373           0      -173.647888  -1984.807617  -11125.00195    100.112183
   11374           0      -173.647888  -1984.807617  -11375.00000    103.578560
   11375           0      -173.647888  -1984.807617  -11625.00000    107.307564
   11376           0      -173.647888  -1984.807617  -11875.00000    110.825706
   11377           0      -173.647888  -1984.807617  -12125.00000    114.736359
   11378           0      -173.647888  -1984.807617  -12375.00000    118.396095
   11379           0      -173.647903  -1984.807617  -12625.00000    122.122375
   11380           0      -173.647903  -1984.807617  -12874.99804    126.355896
   11381           0      -173.647903  -1984.807617  -13124.99609    132.156677
   11382           0      -173.647888  -1984.807617  -13374.99804    124.014366
   11383           0       -57.882427  -1994.935791   -124.999992      9.979548
   11384           0       -57.882427  -1994.935791   -375.000000      9.252323
   11385           0       -57.882427  -1994.935791   -625.000000      9.270116
   11386           0       -57.882427  -1994.935791   -874.999939      8.406449
   11387           0       -57.882427  -1994.935791  -1125.000000      8.297330
   11388           0       -57.882427  -1994.935791  -1375.000122      8.016088
   11389           0       -57.882427  -1994.935791  -1625.000000      8.247496
   11390           0       -57.882427  -1994.935791  -1874.999756      8.601953
   11391           0       -57.882427  -1994.935791  -2125.000000      9.336536
   11392           0       -57.882427  -1994.935791  -2375.000000     10.263745
   11393           0       -57.882427  -1994.935791  -2625.000000     11.426370
   11394           0       -57.882427  -1994.935791  -2874.999756     12.743289
   11395           0       -57.882427  -1994.935791  -3125.000000     14.196211
   11396           0       -57.882427  -1994.935791  -3375.000244     15.754948
   11397           0       -57.882427  -1994.935791  -3625.000000     17.396368
   11398           0       -57.882427  -1994.935791  -3875.000000     19.110983
   11399           0       -57.882427  -1994.935791  -4125.000000     20.882675
   11400           0       -57.882427  -1994.935791  -4375.000000     22.710146
   11401           0       -57.882427  -1994.935791  -4625.000000     24.585232
   11402           0       -57.882427  -1994.935791  -4875.000000     26.510223
   11403           0       -57.882427  -1994.935791  -5125.000000     28.483370
   11404           0       -57.882427  -1994.935791  -5375.000000     30.508663
   11405           0       -57.882427  -1994.935791  -5625.000000     32.588966
   11406           0       -57.882427  -1994.935791  -5875.000488     34.728951
   11407           0       -57.882427  -1994.935791  -6125.000488     36.933395
   11408           0       -57.882427  -1994.935791  -6375.000000     39.207737
   11409           0       -57.882427  -1994.935791  -6625.000000     41.556950
   11410           0       -57.882423  -1994.935791  -6875.000000     43.985737
   11411           0       -57.882420  -1994.935791  -7124.999512     46.497055
   11412           0       -57.882420  -1994.935791  -7374.999023     49.096291
   11413           0       -57.882420  -1994.935791  -7625.000000     51.781944
   11414           0       -57.882420  -1994.935791  -7875.000000     54.559822
   11415           0       -57.882420  -1994.935791  -8125.000000     57.422993
   11416           0       -57.882420  -1994.935791  -8375.000000     60.379730
   11417           0       -57.882420  -1994.935791  -8625.000000     63.416000
   11418           0       -57.882420  -1994.935791  -8875.000000     66.544022
   11419           0       -57.882420  -1994.935791  -9125.000000     69.741798
   11420           0       -57.882420  -1994.935791  -9375.000000     73.030861
   11421           0       -57.882420  -1994.935791  -9625.000000     76.375504
   11422           0       -57.882420  -1994.935791  -9875.000000     79.813515
   11423           0       -57.882420  -1994.935791  -10124.99902     83.288857
   11424           0       -57.882420  -1994.935791  -10374.99902     86.868324
   11425           0       -57.882420  -1994.935791  -10625.00000     90.455940
   11426           0       -57.882420  -1994.935791  -10875.00000     94.174721
   11427           0       -57.882420  -1994.935791  -11125.00000     97.854378
   11428           0       -57.882420  -1994.935791  -11375.00000    101.718880
   11429           0       -57.882420  -1994.935791  -11625.00000    105.465767
   11430           0       -57.882420  -1994.935791  -11875.00000    109.488960
   11431           0       -57.882420  -1994.935791  -12125.00000    113.296196
   11432           0       -57.882420  -1994.935791  -12374.99902    117.479935
   11433           0       -57.882420  -1994.935791  -12625.00000    121.074623
   11434           0       -57.882420  -1994.935791  -12874.99902    126.978638
   11435           0       -57.882420  -1994.935791  -13124.99902    126.642517
   11436           0       -57.882423  -1994.935791  -13374.99902    131.092499
   11437           0        57.883011  -1994.935791   -124.999985      9.524613
   11438           0        57.883011  -1994.935791   -375.000000      9.563104
   11439           0        57.883011  -1994.935791   -624.999939      8.215194
   11440           0        57.883011  -1994.935791   -875.000000      7.774820
   11441           0        57.883011  -1994.935791  -1125.000000      7.105976
   11442           0        57.883011  -1994.935791  -1375.000122      6.891971
   11443           0        57.883011  -1994.935791  -1625.000000      6.794384
   11444           0        57.883011  -1994.935791  -1874.999756      7.200825
   11445           0        57.883011  -1994.935791  -2125.000000      7.813501
   11446           0        57.883011  -1994.935791  -2375.000244      8.820355
   11447           0        57.883011  -1994.935791  -2624.999756      9.976889
   11448           0        57.883011  -1994.935791  -2874.999512     11.365355
   11449           0        57.883011  -1994.935791  -3124.999756     12.842956
   11450           0        57.883018  -1994.935791  -3375.000244     14.451130
   11451           0        57.883018  -1994.935791  -3625.000244     16.116095
   11452           0        57.883018  -1994.935791  -3875.000244     17.859898
   11453           0        57.883018  -1994.935791  -4125.000000     19.646120
   11454           0        57.883018  -1994.935791  -4375.000000     21.487278
   11455           0        57.883018  -1994.935791  -4625.000000     23.367193
   11456           0        57.883018  -1994.935791  -4875.000000     25.294310
   11457           0        57.883018  -1994.935791  -5124.999512     27.263933
   11458           0        57.883018  -1994.935791  -5374.999512     29.283022
   11459           0        57.883018  -1994.935791  -5625.000000     31.353323
   11460           0        57.883018  -1994.935791  -5875.000488     33.481030
   11461           0        57.883018  -1994.935791  -6125.000977     35.670887
   11462           0        57.883018  -1994.935791  -6375.000488     37.928917
   11463           0        57.883018  -1994.935791  -6625.000000     40.260548
   11464           0        57.883018  -1994.935791  -6875.000488     42.670551
   11465           0        57.883018  -1994.935791  -7124.999512     45.162769
   11466           0        57.883018  -1994.935791  -7374.999023     47.741810
   11467           0        57.883018  -1994.935791  -7625.000000     50.407848
   11468           0        57.883018  -1994.935791  -7875.000000     53.164890
   11469           0        57.883018  -1994.935791  -8124.999023     56.008648
   11470           0        57.883018  -1994.935791  -8374.999023     58.944130
   11471           0        57.883018  -1994.935791  -8625.000000     61.961529
   11472           0        57.883018  -1994.935791  -8875.000977     65.068176
   11473           0        57.883018  -1994.935791  -9125.000000     68.247726
   11474           0        57.883018  -1994.935791  -9374.999023     71.514641
   11475           0        57.883018  -1994.935791  -9625.000000     74.841789
   11476           0        57.883018  -1994.935791  -9875.000000     78.256805
   11477           0        57.883022  -1994.935791  -10125.00000     81.715324
   11478           0        57.883026  -1994.935791  -10375.00000     85.270004
   11479           0        57.883026  -1994.935791  -10624.99902     88.842010
   11480           0        57.883026  -1994.935791  -10875.00097     92.533409
   11481           0        57.883026  -1994.935791  -11125.00097     96.198868
   11482           0        57.883026  -1994.935791  -11375.00000    100.033440
   11483           0        57.883026  -1994.935791  -11625.00000    103.766724
   11484           0        57.883026  -1994.935791  -11875.00000    107.759178
   11485           0        57.883026  -1994.935791  -12125.00000    111.547401
   11486           0        57.883026  -1994.935791  -12374.99902    115.712448
   11487           0        57.883026  -1994.935791  -12625.00000    119.279427
   11488           0        57.883026  -1994.935791  -12874.99902    125.058136
   11489           0        57.883026  -1994.935791  -13124.99804    125.256248
   11490           0        57.883018  -1994.935791  -13374.99902    128.053696
   11491           0       173.648453  -1984.807617   -124.999985     10.345192
   11492           0       173.648453  -1984.807617   -374.999969     11.434448
   11493           0       173.648453  -1984.807617   -624.999939      9.564137
   11494           0       173.648453  -1984.807617   -874.999878      9.510112
   11495           0       173.648438  -1984.807617  -1124.999878      8.966996
   11496           0       173.648438  -1984.807617  -1375.000244      9.012754
   11497           0       173.648438  -1984.807617  -1625.000000      9.265946
   11498           0       173.648438  -1984.807617  -1874.999512      9.866724
   11499           0       173.648438  -1984.807617  -2125.000244     10.764280
   11500           0       173.648438  -1984.807617  -2375.000244     11.875621
   11501           0       173.648438  -1984.807617  -2624.999756     13.211435
   11502           0       173.648438  -1984.807617  -2874.999512     14.667355
   11503           0       173.648438  -1984.807617  -3124.999512     16.267904
   11504           0       173.648438  -1984.807617  -3375.000488     17.938559
   11505           0       173.648438  -1984.807617  -3625.000488     19.699574
   11506           0       173.648438  -1984.807617  -3875.000244     21.505726
   11507           0       173.648438  -1984.807617  -4125.000488     23.370016
   11508           0       173.648438  -1984.807617  -4375.000488     25.267408
   11509           0       173.648438  -1984.807617  -4625.000488     27.205833
   11510           0       173.648438  -1984.807617  -4874.999512     29.172686
   11511           0       173.648438  -1984.807617  -5124.999512     31.173653
   11512           0       173.648422  -1984.807617  -5374.999023     33.203472
   11513           0       173.648407  -1984.807617  -5625.000000     35.267612
   11514           0       173.648407  -1984.807617  -5875.000977     37.365105
   11515           0       173.648407  -1984.807617  -6125.000977     39.501793
   11516           0       173.648407  -1984.807617  -6375.000000     41.678974
   11517           0       173.648407  -1984.807617  -6625.000000     43.903667
   11518           0       173.648407  -1984.807617  -6875.000977     46.177727
   11519           0       173.648407  -1984.807617  -7124.999023     48.508713
   11520           0       173.648407  -1984.807617  -7374.998535     50.897884
   11521           0       173.648407  -1984.807617  -7625.000000     53.353313
   11522           0       173.648407  -1984.807617  -7875.000000     55.873569
   11523           0       173.648407  -1984.807617  -8124.999023     58.467697
   11524           0       173.648407  -1984.807617  -8374.999023     61.129677
   11525           0       173.648407  -1984.807617  -8625.000000     63.871738
   11526           0       173.648407  -1984.807617  -8875.000977     66.679375
   11527           0       173.648407  -1984.807617  -9125.000000     69.571793
   11528           0       173.648407  -1984.807617  -9374.998047     72.522339
   11529           0       173.648392  -1984.807617  -9625.000000     75.564049
   11530           0       173.648376  -1984.807617  -9875.000000     78.648994
   11531           0       173.648376  -1984.807617  -10125.00000     81.836884
   11532           0       173.648392  -1984.807617  -10375.00000     85.044846
   11533           0       173.648392  -1984.807617  -10624.99804     88.377464
   11534           0       173.648392  -1984.807617  -10875.00195     91.692734
   11535           0       173.648392  -1984.807617  -11125.00195     95.175514
   11536           0       173.648376  -1984.807617  -11375.00000     98.576141
   11537           0       173.648376  -1984.807617  -11625.00000    102.226852
   11538           0       173.648376  -1984.807617  -11875.00000    105.681549
   11539           0       173.648376  -1984.807617  -12125.00000    109.508965
   11540           0       173.648376  -1984.807617  -12375.00000    113.106789
   11541           0       173.648376  -1984.807617  -12625.00000    116.747398
   11542           0       173.648376  -1984.807617  -12874.99804    120.927429
   11543           0       173.648376  -1984.807617  -13124.99609    126.538712
   11544           0       173.648422  -1984.807617  -13374.99804    118.744041
   11545           0       289.413879  -1974.679443   -124.999992     12.859405
   11546           0       289.413879  -1974.679443   -375.000000     11.565895
   11547           0       289.413879  -1974.679443   -625.000000     10.756444
   11548           0       289.413879  -1974.679443   -874.999939      8.920768
   11549           0       289.413879  -1974.679443  -1125.000000      7.782519
   11550           0       289.413879  -1974.679443  -1375.000122      6.231311
   11551           0       289.413879  -1974.679443  -1625.000000      5.226621
   11552           0       289.413879  -1974.679443  -1874.999756      4.381112
   11553           0       289.413879  -1974.679443  -2125.000000      4.412890
   11554           0       289.413879  -1974.679443  -2375.000000      5.141154
   11555           0       289.413879  -1974.679443  -2625.000000      6.452288
   11556           0       289.413879  -1974.679443  -2874.999756      8.079172
   11557           0       289.413879  -1974.679443  -3125.000000      9.882211
   11558           0       289.413879  -1974.679443  -3375.000244     11.809011
   11559           0       289.413879  -1974.679443  -3625.000000     13.806149
   11560           0       289.413879  -1974.679443  -3875.000000     15.866766
   11561           0       289.413849  -1974.679443  -4125.000000     17.966892
   11562           0       289.413849  -1974.679443  -4375.000000     20.105659
   11563           0       289.413849  -1974.679443  -4625.000000     22.271875
   11564           0       289.413849  -1974.679443  -4875.000000     24.464691
   11565           0       289.413849  -1974.679443  -5125.000000     26.679487
   11566           0       289.413849  -1974.679443  -5375.000000     28.915289
   11567           0       289.413849  -1974.679443  -5625.000000     31.171370
   11568           0       289.413849  -1974.679443  -5875.000488     33.447533
   11569           0       289.413849  -1974.679443  -6125.000488     35.745171
   11570           0       289.413849  -1974.679443  -6375.000000     38.066120
   11571           0       289.413849  -1974.679443  -6625.000000     40.413254
   11572           0       289.413849  -1974.679443  -6875.000000     42.790222
   11573           0       289.413849  -1974.679443  -7124.999512     45.199871
   11574           0       289.413849  -1974.679443  -7374.999023     47.649059
   11575           0       289.413849  -1974.679443  -7625.000000     50.138474
   11576           0       289.413849  -1974.679443  -7875.000000     52.677715
   11577           0       289.413849  -1974.679443  -8125.000000     55.263470
   11578           0       289.413849  -1974.679443  -8375.000000     57.909142
   11579           0       289.413818  -1974.679443  -8625.000000     60.604706
   11580           0       289.413818  -1974.679443  -8875.000000     63.367836
   11581           0       289.413818  -1974.679443  -9125.000000     66.179611
   11582           0       289.413818  -1974.679443  -9375.000000     69.066246
   11583           0       289.413818  -1974.679443  -9625.000000     71.994354
   11584           0       289.413818  -1974.679443  -9875.000000     75.004250
   11585           0       289.413818  -1974.679443  -10124.99902     78.043091
   11586           0       289.413818  -1974.679443  -10374.99902     81.175682
   11587           0       289.413818  -1974.679443  -10625.00000     84.315086
   11588           0       289.413818  -1974.679443  -10875.00000     87.570724
   11589           0       289.413818  -1974.679443  -11125.00000     90.799133
   11590           0       289.413818  -1974.679443  -11375.00000     94.181938
   11591           0       289.413818  -1974.679443  -11625.00000     97.486412
   11592           0       289.413818  -1974.679443  -11875.00000    100.997635
   11593           0       289.413818  -1974.679443  -12125.00000    104.388519
   11594           0       289.413818  -1974.679443  -12374.99902    108.022827
   11595           0       289.413818  -1974.679443  -12625.00000    111.237633
   11596           0       289.413788  -1974.679443  -12874.99902    116.407982
   11597           0       289.413788  -1974.679443  -13124.99902    116.426239
   11598           0       289.413849  -1974.679443  -13374.99902    119.072380
   11599           0       403.420563  -1954.577026   -124.999985     15.822202
   11600           0       403.420563  -1954.577026   -375.000000     15.189606
   11601           0       403.420563  -1954.577026   -624.999939     13.553933
   11602           0       403.420563  -1954.577026   -875.000000     11.574544
   11603           0       403.420563  -1954.577026  -1125.000000      9.904076
   11604           0       403.420563  -1954.577026  -1375.000122      8.022911
   11605           0       403.420563  -1954.577026  -1625.000000      6.299777
   11606           0       403.420563  -1954.577026  -1874.999756      4.598850
   11607           0       403.420563  -1954.577026  -2125.000000      3.388168
   11608           0       403.420563  -1954.577026  -2375.000244      3.214685
   11609           0       403.420563  -1954.577026  -2624.999756      4.291788
   11610           0       403.420563  -1954.577026  -2874.999512      6.057142
   11611           0       403.420563  -1954.577026  -3124.999756      8.052713
   11612           0       403.420563  -1954.577026  -3375.000244     10.209745
   11613           0       403.420563  -1954.577026  -3625.000244     12.418027
   11614           0       403.420563  -1954.577026  -3875.000244     14.697523
   11615           0       403.420563  -1954.577026  -4125.000000     16.998276
   11616           0       403.420563  -1954.577026  -4375.000000     19.337999
   11617           0       403.420563  -1954.577026  -4625.000000     21.688171
   11618           0       403.420563  -1954.577026  -4875.000000     24.058861
   11619           0       403.420563  -1954.577026  -5124.999512     26.432928
   11620           0       403.420563  -1954.577026  -5374.999512     28.815136
   11621           0       403.420563  -1954.577026  -5625.000000     31.195545
   11622           0       403.420563  -1954.577026  -5875.000488     33.576157
   11623           0       403.420563  -1954.577026  -6125.000977     35.952232
   11624           0       403.420563  -1954.577026  -6375.000488     38.325729
   11625           0       403.420563  -1954.577026  -6625.000000     40.696209
   11626           0       403.420563  -1954.577026  -6875.000488     43.065994
   11627           0       403.420563  -1954.577026  -7124.999512     45.437653
   11628           0       403.420563  -1954.577026  -7374.999023     47.815922
   11629           0       403.420563  -1954.577026  -7625.000000     50.204498
   11630           0       403.420563  -1954.577026  -7875.000000     52.609627
   11631           0       403.420563  -1954.577026  -8124.999023     55.035156
   11632           0       403.420563  -1954.577026  -8374.999023     57.488728
   11633           0       403.420563  -1954.577026  -8625.000000     59.972561
   11634           0       403.420563  -1954.577026  -8875.000977     62.494579
   11635           0       403.420563  -1954.577026  -9125.000000     65.053802
   11636           0       403.420563  -1954.577026  -9374.999023     67.660484
   11637           0       403.420563  -1954.577026  -9625.000000     70.306419
   11638           0       403.420563  -1954.577026  -9875.000000     73.007706
   11639           0       403.420563  -1954.577026  -10125.00000     75.744484
   11640           0       403.420563  -1954.577026  -10375.00000     78.547707
   11641           0       403.420563  -1954.577026  -10624.99902     81.372025
   11642           0       403.420563  -1954.577026  -10875.00097     84.284935
   11643           0       403.420563  -1954.577026  -11125.00097     87.187141
   11644           0       403.420563  -1954.577026  -11375.00000     90.223694
   11645           0       403.420563  -1954.577026  -11625.00000     93.183693
   11646           0       403.420563  -1954.577026  -11875.00000     96.365234
   11647           0       403.420563  -1954.577026  -12125.00000     99.371902
   11648           0       403.420563  -1954.577026  -12374.99902    102.705765
   11649           0       403.420563  -1954.577026  -12625.00000    105.552895
   11650           0       403.420563  -1954.577026  -12874.99902    110.302818
   11651           0       403.420563  -1954.577026  -13124.99804    109.858101
   11652           0       403.420563  -1954.577026  -13374.99902    113.054520
   11653           0       515.668518  -1924.500244   -124.999985     19.630634
   11654           0       515.668518  -1924.500244   -374.999969     20.209816
   11655           0       515.668518  -1924.500244   -624.999939     16.885406
   11656           0       515.668518  -1924.500244   -874.999878     15.644928
   11657           0       515.668518  -1924.500244  -1124.999878     13.352555
   11658           0       515.668518  -1924.500244  -1375.000244     11.859131
   11659           0       515.668518  -1924.500244  -1625.000000     10.066854
   11660           0       515.668518  -1924.500244  -1874.999512      8.898444
   11661           0       515.668518  -1924.500244  -2125.000244      8.021721
   11662           0       515.668518  -1924.500244  -2375.000244      7.929586
   11663           0       515.668518  -1924.500244  -2624.999756      8.538912
   11664           0       515.668518  -1924.500244  -2874.999512      9.769226
   11665           0       515.668518  -1924.500244  -3124.999512     11.465321
   11666           0       515.668518  -1924.500244  -3375.000488     13.422256
   11667           0       515.668518  -1924.500244  -3625.000488     15.594358
   11668           0       515.668518  -1924.500244  -3875.000244     17.867369
   11669           0       515.668518  -1924.500244  -4125.000488     20.240875
   11670           0       515.668518  -1924.500244  -4375.000488     22.653345
   11671           0       515.668518  -1924.500244  -4625.000488     25.108990
   11672           0       515.668518  -1924.500244  -4874.999512     27.571657
   11673           0       515.668518  -1924.500244  -5124.999512     30.042747
   11674           0       515.668518  -1924.500244  -5374.999023     32.499405
   11675           0       515.668518  -1924.500244  -5625.000000     34.941463
   11676           0       515.668518  -1924.500244  -5875.000977     37.354076
   11677           0       515.668518  -1924.500244  -6125.000977     39.737034
   11678           0       515.668518  -1924.500244  -6375.000000     42.081543
   11679           0       515.668518  -1924.500244  -6625.000000     44.389534
   11680           0       515.668518  -1924.500244  -6875.000977     46.656750
   11681           0       515.668518  -1924.500244  -7124.999023     48.887760
   11682           0       515.668518  -1924.500244  -7374.998535     51.082470
   11683           0       515.668518  -1924.500244  -7625.000000     53.248493
   11684           0       515.668518  -1924.500244  -7875.000000     55.388184
   11685           0       515.668518  -1924.500244  -8124.999023     57.512329
   11686           0       515.668518  -1924.500244  -8374.999023     59.623871
   11687           0       515.668518  -1924.500244  -8625.000000     61.737320
   11688           0       515.668518  -1924.500244  -8875.000977     63.852089
   11689           0       515.668518  -1924.500244  -9125.000000     65.987534
   11690           0       515.668518  -1924.500244  -9374.998047     68.135788
   11691           0       515.668518  -1924.500244  -9625.000000     70.323761
   11692           0       515.668518  -1924.500244  -9875.000000     72.528900
   11693           0       515.668579  -1924.500244  -10125.00000     74.793442
   11694           0       515.668579  -1924.500244  -10375.00000     77.070641
   11695           0       515.668579  -1924.500244  -10624.99804     79.429268
   11696           0       515.668579  -1924.500244  -10875.00195     81.783768
   11697           0       515.668579  -1924.500244  -11125.00195     84.252106
   11698           0       515.668579  -1924.500244  -11375.00000     86.679657
   11699           0       515.668579  -1924.500244  -11625.00000     89.276405
   11700           0       515.668579  -1924.500244  -11875.00000     91.764503
   11701           0       515.668579  -1924.500244  -12125.00000     94.492805
   11702           0       515.668579  -1924.500244  -12375.00000     97.125137
   11703           0       515.668579  -1924.500244  -12625.00000     99.701653
   11704           0       515.668579  -1924.500244  -12874.99804    102.762726
   11705           0       515.668579  -1924.500244  -13124.99609    107.132568
   11706           0       515.668579  -1924.500244  -13374.99804    100.010101
   11707           0       627.916504  -1894.423340   -124.999992     26.437016
   11708           0       627.916504  -1894.423340   -375.000000     24.141619
   11709           0       627.916504  -1894.423340   -625.000000     22.667379
   11710           0       627.916504  -1894.423340   -874.999939     19.656221
   11711           0       627.916504  -1894.423340  -1125.000000     17.552605
   11712           0       627.916504  -1894.423340  -1375.000122     14.836463
   11713           0       627.916504  -1894.423340  -1625.000000     12.531993
   11714           0       627.916504  -1894.423340  -1874.999756      9.942909
   11715           0       627.916504  -1894.423340  -2125.000000      7.624410
   11716           0       627.916504  -1894.423340  -2375.000000      5.411412
   11717           0       627.916504  -1894.423340  -2625.000000      3.949680
   11718           0       627.916504  -1894.423340  -2874.999756      4.125632
   11719           0       627.916504  -1894.423340  -3125.000000      5.794434
   11720           0       627.916504  -1894.423340  -3375.000244      8.165971
   11721           0       627.916504  -1894.423340  -3625.000000     10.745566
   11722           0       627.916504  -1894.423340  -3875.000000     13.463643
   11723           0       627.916504  -1894.423340  -4125.000000     16.216892
   11724           0       627.916504  -1894.423340  -4375.000000     19.008236
   11725           0       627.916504  -1894.423340  -4625.000000     21.794233
   11726           0       627.916504  -1894.423340  -4875.000000     24.574444
   11727           0       627.916504  -1894.423340  -5125.000000     27.324106
   11728           0       627.916504  -1894.423340  -5375.000000     30.037781
   11729           0       627.916504  -1894.423340  -5625.000000     32.699871
   11730           0       627.916504  -1894.423340  -5875.000488     35.303787
   11731           0       627.916504  -1894.423340  -6125.000488     37.839695
   11732           0       627.916504  -1894.423340  -6375.000000     40.303211
   11733           0       627.916504  -1894.423340  -6625.000000     42.689499
   11734           0       627.916504  -1894.423340  -6875.000000     44.997864
   11735           0       627.916504  -1894.423340  -7124.999512     47.227333
   11736           0       627.916504  -1894.423340  -7374.999023     49.383133
   11737           0       627.916504  -1894.423340  -7625.000000     51.466743
   11738           0       627.916504  -1894.423340  -7875.000000     53.489307
   11739           0       627.916504  -1894.423340  -8125.000000     55.453304
   11740           0       627.916504  -1894.423340  -8375.000000     57.376286
   11741           0       627.916504  -1894.423340  -8625.000000     59.259087
   11742           0       627.916504  -1894.423340  -8875.000000     61.124420
   11743           0       627.916504  -1894.423340  -9125.000000     62.968754
   11744           0       627.916504  -1894.423340  -9375.000000     64.820801
   11745           0       627.916504  -1894.423340  -9625.000000     66.667397
   11746           0       627.916504  -1894.423340  -9875.000000     68.543678
   11747           0       627.916565  -1894.423340  -10124.99902     70.424393
   11748           0       627.916565  -1894.423340  -10374.99902     72.354095
   11749           0       627.916565  -1894.423340  -10625.00000     74.288811
   11750           0       627.916565  -1894.423340  -10875.00000     76.290756
   11751           0       627.916565  -1894.423340  -11125.00000     78.291954
   11752           0       627.916565  -1894.423340  -11375.00000     80.376808
   11753           0       627.916565  -1894.423340  -11625.00000     82.455513
   11754           0       627.916565  -1894.423340  -11875.00000     84.618378
   11755           0       627.916565  -1894.423340  -12125.00000     86.809692
   11756           0       627.916565  -1894.423340  -12374.99902     89.029655
   11757           0       627.916565  -1894.423340  -12625.00000     91.140030
   11758           0       627.916565  -1894.423340  -12874.99902     94.488716
   11759           0       627.916565  -1894.423340  -13124.99902     94.481628
   11760           0       627.916565  -1894.423340  -13374.99902     94.651215
   11761           0       736.700439  -1854.829224   -124.999985     30.648233
   11762           0       736.700439  -1854.829224   -375.000000     28.206839
   11763           0       736.700439  -1854.829224   -624.999939     26.711325
   11764           0       736.700439  -1854.829224   -875.000000     23.383495
   11765           0       736.700439  -1854.829224  -1125.000000     21.100067
   11766           0       736.700439  -1854.829224  -1375.000122     18.224638
   11767           0       736.700439  -1854.829224  -1625.000000     15.794228
   11768           0       736.700439  -1854.829224  -1874.999756     13.065707
   11769           0       736.700439  -1854.829224  -2125.000000     10.724090
   11770           0       736.700439  -1854.829224  -2375.000244      8.397532
   11771           0       736.700439  -1854.829224  -2624.999756      6.753366
   11772           0       736.700439  -1854.829224  -2874.999512      6.005343
   11773           0       736.700439  -1854.829224  -3124.999756      6.693889
   11774           0       736.700439  -1854.829224  -3375.000244      8.426875
   11775           0       736.700439  -1854.829224  -3625.000244     10.725352
   11776           0       736.700439  -1854.829224  -3875.000244     13.311067
   11777           0       736.700439  -1854.829224  -4125.000000     16.017439
   11778           0       736.700439  -1854.829224  -4375.000000     18.801006
   11779           0       736.700439  -1854.829224  -4625.000000     21.594477
   11780           0       736.700439  -1854.829224  -4875.000000     24.390816
   11781           0       736.700439  -1854.829224  -5124.999512     27.151390
   11782           0       736.700439  -1854.829224  -5374.999512     29.873001
   11783           0       736.700439  -1854.829224  -5625.000000     32.530815
   11784           0       736.700439  -1854.829224  -5875.000488     35.121227
   11785           0       736.700439  -1854.829224  -6125.000977     37.628666
   11786           0       736.700439  -1854.829224  -6375.000488     40.050476
   11787           0       736.700439  -1854.829224  -6625.000000     42.378735
   11788           0       736.700439  -1854.829224  -6875.000488     44.612106
   11789           0       736.700439  -1854.829224  -7124.999512     46.749271
   11790           0       736.700439  -1854.829224  -7374.999023     48.792019
   11791           0       736.700439  -1854.829224  -7625.000000     50.744537
   11792           0       736.700439  -1854.829224  -7875.000000     52.611115
   11793           0       736.700439  -1854.829224  -8124.999023     54.401234
   11794           0       736.700439  -1854.829224  -8374.999023     56.121292
   11795           0       736.700439  -1854.829224  -8625.000000     57.785076
   11796           0       736.700439  -1854.829224  -8875.000977     59.398975
   11797           0       736.700439  -1854.829224  -9125.000000     60.980133
   11798           0       736.700439  -1854.829224  -9374.999023     62.533951
   11799           0       736.700439  -1854.829224  -9625.000000     64.077988
   11800           0       736.700439  -1854.829224  -9875.000000     65.615486
   11801           0       736.700439  -1854.829224  -10125.00000     67.162308
   11802           0       736.700439  -1854.829224  -10375.00000     68.721382
   11803           0       736.700439  -1854.829224  -10624.99902     70.299309
   11804           0       736.700439  -1854.829224  -10875.00097     71.909714
   11805           0       736.700439  -1854.829224  -11125.00097     73.534744
   11806           0       736.700439  -1854.829224  -11375.00000     75.221748
   11807           0       736.700439  -1854.829224  -11625.00000     76.896347
   11808           0       736.700439  -1854.829224  -11875.00000     78.681747
   11809           0       736.700439  -1854.829224  -12125.00000     80.417000
   11810           0       736.700439  -1854.829224  -12374.99902     82.285843
   11811           0       736.700439  -1854.829224  -12625.00000     83.970901
   11812           0       736.700439  -1854.829224  -12874.99902     86.884995
   11813           0       736.700439  -1854.829224  -13124.99804     85.826218
   11814           0       736.700439  -1854.829224  -13374.99902     88.277824
   11815           0       842.020264  -1805.717773   -124.999985     31.764496
   11816           0       842.020264  -1805.717773   -374.999969     32.245949
   11817           0       842.020264  -1805.717773   -624.999939     28.280903
   11818           0       842.020264  -1805.717773   -874.999878     26.081907
   11819           0       842.020264  -1805.717773  -1124.999878     22.950052
   11820           0       842.020264  -1805.717773  -1375.000244     20.619143
   11821           0       842.020264  -1805.717773  -1625.000000     17.729916
   11822           0       842.020264  -1805.717773  -1874.999512     15.398680
   11823           0       842.020264  -1805.717773  -2125.000244     12.919765
   11824           0       842.020264  -1805.717773  -2375.000244     10.971925
   11825           0       842.020264  -1805.717773  -2624.999756      9.426398
   11826           0       842.020264  -1805.717773  -2874.999512      8.784880
   11827           0       842.020264  -1805.717773  -3124.999512      9.160443
   11828           0       842.020264  -1805.717773  -3375.000488     10.446033
   11829           0       842.020264  -1805.717773  -3625.000488     12.398537
   11830           0       842.020264  -1805.717773  -3875.000244     14.693637
   11831           0       842.020264  -1805.717773  -4125.000488     17.227774
   11832           0       842.020264  -1805.717773  -4375.000488     19.846155
   11833           0       842.020264  -1805.717773  -4625.000488     22.531189
   11834           0       842.020264  -1805.717773  -4874.999512     25.206297
   11835           0       842.020264  -1805.717773  -5124.999512     27.870310
   11836           0       842.020264  -1805.717773  -5374.999023     30.479826
   11837           0       842.020264  -1805.717773  -5625.000000     33.035458
   11838           0       842.020264  -1805.717773  -5875.000977     35.510921
   11839           0       842.020264  -1805.717773  -6125.000977     37.906651
   11840           0       842.020264  -1805.717773  -6375.000000     40.207272
   11841           0       842.020264  -1805.717773  -6625.000000     42.414383
   11842           0       842.020264  -1805.717773  -6875.000977     44.519726
   11843           0       842.020264  -1805.717773  -7124.999023     46.526108
   11844           0       842.020264  -1805.717773  -7374.998535     48.431885
   11845           0       842.020264  -1805.717773  -7625.000000     50.241192
   11846           0       842.020264  -1805.717773  -7875.000000     51.957336
   11847           0       842.020264  -1805.717773  -8124.999023     53.586155
   11848           0       842.020264  -1805.717773  -8374.999023     55.135323
   11849           0       842.020264  -1805.717773  -8625.000000     56.612667
   11850           0       842.020264  -1805.717773  -8875.000977     58.028038
   11851           0       842.020264  -1805.717773  -9125.000000     59.391548
   11852           0       842.020264  -1805.717773  -9374.998047     60.714508
   11853           0       842.020264  -1805.717773  -9625.000000     62.008801
   11854           0       842.020264  -1805.717773  -9875.000000     63.283085
   11855           0       842.020264  -1805.717773  -10125.00000     64.553139
   11856           0       842.020264  -1805.717773  -10375.00000     65.820793
   11857           0       842.020264  -1805.717773  -10624.99804     67.105820
   11858           0       842.020264  -1805.717773  -10875.00195     68.399406
   11859           0       842.020264  -1805.717773  -11125.00195     69.730072
   11860           0       842.020264  -1805.717773  -11375.00000     71.069107
   11861           0       842.020264  -1805.717773  -11625.00000     72.466461
   11862           0       842.020264  -1805.717773  -11875.00000     73.862099
   11863           0       842.020264  -1805.717773  -12125.00000     75.322075
   11864           0       842.020264  -1805.717773  -12375.00000     76.846634
   11865           0       842.020264  -1805.717773  -12625.00000     78.197960
   11866           0       842.020264  -1805.717773  -12874.99804     79.906754
   11867           0       842.020264  -1805.717773  -13124.99609     82.846687
   11868           0       842.020264  -1805.717773  -13374.99804     76.677635
   11869           0       947.340210  -1756.606201   -124.999992     37.065781
   11870           0       947.340210  -1756.606201   -375.000000     34.887333
   11871           0       947.340210  -1756.606201   -625.000000     33.093891
   11872           0       947.340210  -1756.606201   -874.999939     29.488174
   11873           0       947.340210  -1756.606201  -1125.000000     27.101763
   11874           0       947.340210  -1756.606201  -1375.000122     24.117191
   11875           0       947.340210  -1756.606201  -1625.000000     21.632458
   11876           0       947.340210  -1756.606201  -1874.999756     19.026011
   11877           0       947.340210  -1756.606201  -2125.000000     16.800795
   11878           0       947.340210  -1756.606201  -2375.000000     14.821315
   11879           0       947.340210  -1756.606201  -2625.000000     13.371074
   11880           0       947.340088  -1756.606201  -2874.999756     12.606154
   11881           0       947.340088  -1756.606201  -3125.000000     12.627285
   11882           0       947.340088  -1756.606201  -3375.000244     13.497925
   11883           0       947.340088  -1756.606201  -3625.000000     14.992229
   11884           0       947.340088  -1756.606201  -3875.000000     16.997036
   11885           0       947.340088  -1756.606201  -4125.000000     19.275219
   11886           0       947.340088  -1756.606201  -4375.000000     21.756413
   11887           0       947.340088  -1756.606201  -4625.000000     24.309183
   11888           0       947.340088  -1756.606445  -4875.000000     26.903124
   11889           0       947.340088  -1756.606445  -5125.000000     29.468399
   11890           0       947.340088  -1756.606445  -5375.000000     31.988674
   11891           0       947.340088  -1756.606445  -5625.000000     34.425922
   11892           0       947.340088  -1756.606445  -5875.000488     36.770020
   11893           0       947.340088  -1756.606445  -6125.000488     39.000744
   11894           0       947.340088  -1756.606445  -6375.000000     41.112911
   11895           0       947.340088  -1756.606445  -6625.000000     43.098000
   11896           0       947.340088  -1756.606445  -6875.000000     44.955261
   11897           0       947.340088  -1756.606445  -7124.999512     46.683647
   11898           0       947.340088  -1756.606445  -7374.999023     48.287807
   11899           0       947.340088  -1756.606445  -7625.000000     49.771214
   11900           0       947.340088  -1756.606445  -7875.000000     51.142982
   11901           0       947.340088  -1756.606445  -8125.000000     52.409557
   11902           0       947.340088  -1756.606445  -8375.000000     53.584118
   11903           0       947.340088  -1756.606445  -8625.000000     54.674950
   11904           0       947.340088  -1756.606445  -8875.000000     55.697201
   11905           0       947.340088  -1756.606445  -9125.000000     56.661022
   11906           0       947.340088  -1756.606445  -9375.000000     57.582935
   11907           0       947.340088  -1756.606445  -9625.000000     58.473450
   11908           0       947.340088  -1756.606445  -9875.000000     59.347462
   11909           0       947.340088  -1756.606445  -10124.99902     60.217533
   11910           0       947.340088  -1756.606445  -10374.99902     61.092880
   11911           0       947.340088  -1756.606445  -10625.00000     61.986893
   11912           0       947.340088  -1756.606445  -10875.00000     62.899754
   11913           0       947.340088  -1756.606445  -11125.00000     63.850754
   11914           0       947.340088  -1756.606445  -11375.00000     64.817604
   11915           0       947.340088  -1756.606445  -11625.00000     65.849602
   11916           0       947.340088  -1756.606445  -11875.00000     66.860115
   11917           0       947.340088  -1756.606445  -12125.00000     68.015900
   11918           0       947.340088  -1756.606445  -12374.99902     69.028358
   11919           0       947.340088  -1756.606445  -12625.00000     70.203972
   11920           0       947.340088  -1756.606445  -12874.99902     71.895348
   11921           0       947.340088  -1756.606445  -13124.99902     71.885948
   11922           0       947.340088  -1756.606445  -13374.99902     70.337509
   11923           0      1047.595947  -1698.723511   -124.999985     37.908123
   11924           0      1047.595947  -1698.723511   -375.000000     34.475803
   11925           0      1047.595947  -1698.723511   -624.999939     33.559414
   11926           0      1047.595947  -1698.723511   -875.000000     29.968887
   11927           0      1047.595947  -1698.723511  -1125.000000     27.929703
   11928           0      1047.595947  -1698.723511  -1375.000122     25.126961
   11929           0      1047.595947  -1698.723511  -1625.000000     23.087715
   11930           0      1047.595947  -1698.723511  -1874.999756     20.793015
   11931           0      1047.595947  -1698.723511  -2125.000000     19.126057
   11932           0      1047.595947  -1698.723511  -2375.000244     17.605728
   11933           0      1047.595947  -1698.723511  -2624.999756     16.756014
   11934           0      1047.595947  -1698.723511  -2874.999512     16.387030
   11935           0      1047.595947  -1698.723511  -3124.999756     16.721415
   11936           0      1047.595947  -1698.723511  -3375.000244     17.609535
   11937           0      1047.595947  -1698.723511  -3625.000244     19.018240
   11938           0      1047.595947  -1698.723511  -3875.000244     20.796400
   11939           0      1047.595947  -1698.723511  -4125.000000     22.839542
   11940           0      1047.595947  -1698.723511  -4375.000000     25.049524
   11941           0      1047.595947  -1698.723511  -4625.000000     27.343327
   11942           0      1047.595947  -1698.723511  -4875.000000     29.666765
   11943           0      1047.595947  -1698.723511  -5124.999512     31.964989
   11944           0      1047.595947  -1698.723511  -5374.999512     34.207821
   11945           0      1047.595947  -1698.723511  -5625.000000     36.361145
   11946           0      1047.595947  -1698.723511  -5875.000488     38.408352
   11947           0      1047.595947  -1698.723511  -6125.000977     40.330730
   11948           0      1047.595947  -1698.723511  -6375.000488     42.121311
   11949           0      1047.595947  -1698.723511  -6625.000000     43.773773
   11950           0      1047.595947  -1698.723511  -6875.000488     45.287891
   11951           0      1047.595947  -1698.723511  -7124.999512     46.667278
   11952           0      1047.595947  -1698.723511  -7374.999023     47.917542
   11953           0      1047.595947  -1698.723511  -7625.000000     49.049744
   11954           0      1047.595947  -1698.723511  -7875.000000     50.072578
   11955           0      1047.595947  -1698.723511  -8124.999023     51.003189
   11956           0      1047.595947  -1698.723511  -8374.999023     51.850803
   11957           0      1047.595947  -1698.723511  -8625.000000     52.637135
   11958           0      1047.595947  -1698.723511  -8875.000977     53.368534
   11959           0      1047.595947  -1698.723511  -9125.000000     54.070724
   11960           0      1047.595947  -1698.723511  -9374.999023     54.744831
   11961           0      1047.595947  -1698.723511  -9625.000000     55.419880
   11962           0      1047.595947  -1698.723511  -9875.000000     56.088776
   11963           0      1047.595947  -1698.723511  -10125.00000     56.785450
   11964           0      1047.595947  -1698.723511  -10375.00000     57.491680
   11965           0      1047.595947  -1698.723511  -10624.99902     58.245750
   11966           0      1047.595947  -1698.723511  -10875.00097     59.017368
   11967           0      1047.595947  -1698.723511  -11125.00097     59.849735
   11968           0      1047.595947  -1698.723511  -11375.00000     60.698242
   11969           0      1047.595947  -1698.723511  -11625.00000     61.615223
   11970           0      1047.595947  -1698.723511  -11875.00000     62.530815
   11971           0      1047.595947  -1698.723511  -12125.00000     63.557423
   11972           0      1047.595947  -1698.723511  -12374.99902     64.472382
   11973           0      1047.595947  -1698.723511  -12625.00000     65.558617
   11974           0      1047.595947  -1698.723511  -12874.99902     67.200546
   11975           0      1047.595947  -1698.723511  -13124.99804     66.054932
   11976           0      1047.595947  -1698.723511  -13374.99902     67.986214
   11977           0      1142.787720  -1632.069580   -124.999985     31.794857
   11978           0      1142.787720  -1632.069580   -374.999969     32.395397
   11979           0      1142.787720  -1632.069580   -624.999939     29.172207
   11980           0      1142.787720  -1632.069580   -874.999878     27.338104
   11981           0      1142.787720  -1632.069580  -1124.999878     24.860340
   11982           0      1142.787720  -1632.069580  -1375.000244     23.118225
   11983           0      1142.787720  -1632.069580  -1625.000000     21.016041
   11984           0      1142.787720  -1632.069580  -1874.999512     19.511524
   11985           0      1142.787720  -1632.069580  -2125.000244     18.041946
   11986           0      1142.787720  -1632.069580  -2375.000244     17.145411
   11987           0      1142.787720  -1632.069580  -2624.999756     16.623892
   11988           0      1142.787720  -1632.069580  -2874.999512     16.714560
   11989           0      1142.787720  -1632.069580  -3124.999512     17.322847
   11990           0      1142.787720  -1632.069580  -3375.000488     18.435251
   11991           0      1142.787720  -1632.069580  -3625.000488     19.946795
   11992           0      1142.787720  -1632.069580  -3875.000244     21.742460
   11993           0      1142.787720  -1632.069580  -4125.000488     23.741098
   11994           0      1142.787720  -1632.069580  -4375.000488     25.838737
   11995           0      1142.787720  -1632.069580  -4625.000488     27.987503
   11996           0      1142.787720  -1632.069580  -4874.999512     30.115137
   11997           0      1142.787720  -1632.069580  -5124.999512     32.195129
   11998           0      1142.787720  -1632.069580  -5374.999023     34.181248
   11999           0      1142.787720  -1632.069580  -5625.000000     36.060589
   12000           0      1142.787720  -1632.069580  -5875.000977     37.806202
   12001           0      1142.787720  -1632.069580  -6125.000977     39.414825
   12002           0      1142.787720  -1632.069580  -6375.000000     40.875660
   12003           0      1142.787720  -1632.069580  -6625.000000     42.194008
   12004           0      1142.787842  -1632.069580  -6875.000977     43.371201
   12005           0      1142.787842  -1632.069580  -7124.999023     44.419312
   12006           0      1142.787842  -1632.069580  -7374.998535     45.351006
   12007           0      1142.787842  -1632.069580  -7625.000000     46.182507
   12008           0      1142.787842  -1632.069580  -7875.000000     46.934536
   12009           0      1142.787842  -1632.069580  -8124.999023     47.624672
   12010           0      1142.787842  -1632.069580  -8374.999023     48.279129
   12011           0      1142.787842  -1632.069580  -8625.000000     48.912571
   12012           0      1142.787842  -1632.069580  -8875.000977     49.552246
   12013           0      1142.787842  -1632.069580  -9125.000000     50.206081
   12014           0      1142.787842  -1632.069580  -9374.998047     50.900784
   12015           0      1142.787842  -1632.069580  -9625.000000     51.632919
   12016           0      1142.787842  -1632.069580  -9875.000000     52.426762
   12017           0      1142.787842  -1632.069580  -10125.00000     53.268013
   12018           0      1142.787842  -1632.069580  -10375.00000     54.179909
   12019           0      1142.787842  -1632.069580  -10624.99804     55.135872
   12020           0      1142.787842  -1632.069580  -10875.00195     56.162567
   12021           0      1142.787842  -1632.069580  -11125.00195     57.222202
   12022           0      1142.787842  -1632.069580  -11375.00000     58.346252
   12023           0      1142.787842  -1632.069580  -11625.00000     59.485836
   12024           0      1142.787842  -1632.069580  -11875.00000     60.684086
   12025           0      1142.787842  -1632.069580  -12125.00000     61.858860
   12026           0      1142.787842  -1632.069580  -12375.00000     63.151173
   12027           0      1142.787842  -1632.069580  -12625.00000     64.234955
   12028           0      1142.787842  -1632.069580  -12874.99804     65.518677
   12029           0      1142.787842  -1632.069580  -13124.99609     68.001038
   12030           0      1142.787720  -1632.069580  -13374.99804     62.904682
   12031           0      1237.979370  -1565.415527   -124.999992     29.252598
   12032           0      1237.979370  -1565.415527   -375.000000     29.259813
   12033           0      1237.979370  -1565.415527   -625.000000     27.898525
   12034           0      1237.979370  -1565.415527   -874.999939     25.652212
   12035           0      1237.979370  -1565.415527  -1125.000000     24.415775
   12036           0      1237.979370  -1565.415527  -1375.000122     22.988800
   12037           0      1237.979370  -1565.415527  -1625.000000     21.976995
   12038           0      1237.979370  -1565.415527  -1874.999756     21.224129
   12039           0      1237.979370  -1565.415527  -2125.000000     20.891050
   12040           0      1237.979370  -1565.415527  -2375.000000     20.993725
   12041           0      1237.979370  -1565.415527  -2625.000000     21.558781
   12042           0      1237.979370  -1565.415527  -2874.999756     22.600527
   12043           0      1237.979370  -1565.415527  -3125.000000     24.038223
   12044           0      1237.979370  -1565.415527  -3375.000244     25.842190
   12045           0      1237.979370  -1565.415527  -3625.000000     27.889198
   12046           0      1237.979370  -1565.415527  -3875.000000     30.130886
   12047           0      1237.979370  -1565.415527  -4125.000000     32.455612
   12048           0      1237.979370  -1565.415527  -4375.000000     34.818806
   12049           0      1237.979370  -1565.415527  -4625.000000     37.136597
   12050           0      1237.979370  -1565.415527  -4875.000000     39.374992
   12051           0      1237.979370  -1565.415527  -5125.000000     41.476948
   12052           0      1237.979370  -1565.415527  -5375.000000     43.419960
   12053           0      1237.979370  -1565.415527  -5625.000000     45.169140
   12054           0      1237.979370  -1565.415527  -5875.000488     46.713543
   12055           0      1237.979370  -1565.415527  -6125.000488     48.036568
   12056           0      1237.979370  -1565.415527  -6375.000000     49.137737
   12057           0      1237.979370  -1565.415527  -6625.000000     50.016045
   12058           0      1237.979370  -1565.415527  -6875.000000     50.681339
   12059           0      1237.979492  -1565.415527  -7124.999512     51.145943
   12060           0      1237.979492  -1565.415527  -7374.999023     51.429451
   12061           0      1237.979492  -1565.415527  -7625.000000     51.556015
   12062           0      1237.979492  -1565.415527  -7875.000000     51.553665
   12063           0      1237.979492  -1565.415527  -8125.000000     51.456566
   12064           0      1237.979492  -1565.415527  -8375.000000     51.298031
   12065           0      1237.979492  -1565.415527  -8625.000000     51.119591
   12066           0      1237.979492  -1565.415527  -8875.000000     50.952950
   12067           0      1237.979492  -1565.415527  -9125.000000     50.842434
   12068           0      1237.979492  -1565.415527  -9375.000000     50.809338
   12069           0      1237.979492  -1565.415527  -9625.000000     50.895317
   12070           0      1237.979492  -1565.415527  -9875.000000     51.099873
   12071           0      1237.979492  -1565.415527  -10124.99902     51.461559
   12072           0      1237.979492  -1565.415527  -10374.99902     51.950966
   12073           0      1237.979492  -1565.415527  -10625.00000     52.606560
   12074           0      1237.979492  -1565.415527  -10875.00000     53.369774
   12075           0      1237.979492  -1565.415527  -11125.00000     54.289284
   12076           0      1237.979492  -1565.415527  -11375.00000     55.274841
   12077           0      1237.979492  -1565.415527  -11625.00000     56.400841
   12078           0      1237.979492  -1565.415527  -11875.00000     57.529751
   12079           0      1237.979492  -1565.415527  -12125.00000     58.813850
   12080           0      1237.979492  -1565.415527  -12374.99902     59.973904
   12081           0      1237.979492  -1565.415527  -12625.00000     61.310417
   12082           0      1237.979492  -1565.415527  -12874.99902     62.913410
   12083           0      1237.979492  -1565.415527  -13124.99902     63.338356
   12084           0      1237.979370  -1565.415527  -13374.99902     62.050575
   12085           0      1326.660889  -1491.003052   -124.999985     22.865448
   12086           0      1326.660889  -1491.003052   -375.000000     21.994244
   12087           0      1326.660889  -1491.003052   -624.999939     22.070902
   12088           0      1326.660889  -1491.003052   -875.000000     20.656143
   12089           0      1326.660889  -1491.003052  -1125.000000     20.532068
   12090           0      1326.660889  -1491.003052  -1375.000122     19.890610
   12091           0      1326.660889  -1491.003052  -1625.000000     20.043865
   12092           0      1326.660889  -1491.003052  -1874.999756     20.201561
   12093           0      1326.660889  -1491.003052  -2125.000000     20.938492
   12094           0      1326.660889  -1491.003052  -2375.000244     21.912580
   12095           0      1326.660889  -1491.003052  -2624.999756     23.336123
   12096           0      1326.660889  -1491.003052  -2874.999512     25.028601
   12097           0      1326.660889  -1491.003052  -3124.999756     27.032841
   12098           0      1326.660889  -1491.003052  -3375.000244     29.225113
   12099           0      1326.660889  -1491.003052  -3625.000244     31.578440
   12100           0      1326.660889  -1491.003052  -3875.000244     33.998707
   12101           0      1326.660889  -1491.003052  -4125.000000     36.439877
   12102           0      1326.660889  -1491.003052  -4375.000000     38.831409
   12103           0      1326.660889  -1491.003052  -4625.000000     41.130482
   12104           0      1326.660889  -1491.003052  -4875.000000     43.286961
   12105           0      1326.660889  -1491.003052  -5124.999512     45.269798
   12106           0      1326.660889  -1491.003052  -5374.999512     47.046383
   12107           0      1326.660889  -1491.003052  -5625.000000     48.599178
   12108           0      1326.660889  -1491.003052  -5875.000488     49.910431
   12109           0      1326.660889  -1491.003052  -6125.000977     50.975368
   12110           0      1326.660889  -1491.003052  -6375.000488     51.789238
   12111           0      1326.660889  -1491.003052  -6625.000000     52.359688
   12112           0      1326.660889  -1491.003052  -6875.000488     52.692894
   12113           0      1326.660889  -1491.003052  -7124.999512     52.807728
   12114           0      1326.660889  -1491.003052  -7374.999023     52.723003
   12115           0      1326.660889  -1491.003052  -7625.000000     52.467594
   12116           0      1326.660889  -1491.003052  -7875.000000     52.072311
   12117           0      1326.660889  -1491.003052  -8124.999023     51.576973
   12118           0      1326.660889  -1491.003052  -8374.999023     51.022800
   12119           0      1326.660889  -1491.003052  -8625.000000     50.459457
   12120           0      1326.660889  -1491.003052  -8875.000977     49.932949
   12121           0      1326.660889  -1491.003052  -9125.000000     49.497807
   12122           0      1326.660889  -1491.003052  -9374.999023     49.196320
   12123           0      1326.660889  -1491.003052  -9625.000000     49.075665
   12124           0      1326.660889  -1491.003052  -9875.000000     49.161121
   12125           0      1326.660889  -1491.003052  -10125.00000     49.481995
   12126           0      1326.660889  -1491.003052  -10375.00000     50.036083
   12127           0      1326.660889  -1491.003052  -10624.99902     50.829857
   12128           0      1326.660889  -1491.003052  -10875.00097     51.833698
   12129           0      1326.660889  -1491.003052  -11125.00097     53.043785
   12130           0      1326.660889  -1491.003052  -11375.00000     54.400261
   12131           0      1326.660889  -1491.003052  -11625.00000     55.924534
   12132           0      1326.660889  -1491.003052  -11875.00000     57.486412
   12133           0      1326.660889  -1491.003052  -12125.00000     59.257114
   12134           0      1326.660889  -1491.003052  -12374.99902     60.810913
   12135           0      1326.660889  -1491.003052  -12625.00000     62.702888
   12136           0      1326.661011  -1491.003052  -12874.99902     64.970383
   12137           0      1326.661011  -1491.002930  -13124.99804     64.446831
   12138           0      1326.661011  -1491.002930  -13374.99902     67.737755
   12139           0      1408.832275  -1408.831787   -124.999985     13.778924
   12140           0      1408.832275  -1408.831787   -374.999969     15.358135
   12141           0      1408.832275  -1408.831787   -624.999939     14.432040
   12142           0      1408.832275  -1408.831787   -874.999878     14.654561
   12143           0      1408.832275  -1408.831787  -1124.999878     14.574088
   12144           0      1408.832275  -1408.831787  -1375.000244     14.719306
   12145           0      1408.832275  -1408.831787  -1625.000000     15.152253
   12146           0      1408.832275  -1408.831787  -1874.999512     15.883643
   12147           0      1408.832275  -1408.831787  -2125.000244     16.970139
   12148           0      1408.832275  -1408.831787  -2375.000244     18.435225
   12149           0      1408.832275  -1408.831787  -2624.999756     20.205849
   12150           0      1408.832275  -1408.831787  -2874.999512     22.271467
   12151           0      1408.832275  -1408.831787  -3124.999512     24.518538
   12152           0      1408.832275  -1408.831787  -3375.000488     26.909445
   12153           0      1408.832275  -1408.831787  -3625.000488     29.341753
   12154           0      1408.832275  -1408.831787  -3875.000244     31.774450
   12155           0      1408.832275  -1408.831787  -4125.000488     34.130825
   12156           0      1408.832275  -1408.831787  -4375.000488     36.377758
   12157           0      1408.832275  -1408.831787  -4625.000488     38.463665
   12158           0      1408.832275  -1408.831787  -4874.999512     40.367004
   12159           0      1408.832275  -1408.831787  -5124.999512     42.056610
   12160           0      1408.832275  -1408.831787  -5374.999023     43.521690
   12161           0      1408.832275  -1408.831787  -5625.000000     44.748283
   12162           0      1408.832275  -1408.831787  -5875.000977     45.734112
   12163           0      1408.832031  -1408.831787  -6125.000977     46.477840
   12164           0      1408.832031  -1408.831787  -6375.000000     46.986893
   12165           0      1408.832031  -1408.831787  -6625.000000     47.270153
   12166           0      1408.832031  -1408.831787  -6875.000977     47.343643
   12167           0      1408.832031  -1408.831787  -7124.999023     47.226383
   12168           0      1408.832031  -1408.831787  -7374.998535     46.945137
   12169           0      1408.832031  -1408.831787  -7625.000000     46.529480
   12170           0      1408.832031  -1408.831787  -7875.000000     46.018955
   12171           0      1408.832031  -1408.831787  -8124.999023     45.454590
   12172           0      1408.832031  -1408.831787  -8374.999023     44.891891
   12173           0      1408.832031  -1408.831787  -8625.000000     44.380814
   12174           0      1408.832031  -1408.831787  -8875.000977     43.990452
   12175           0      1408.832031  -1408.831787  -9125.000000     43.773556
   12176           0      1408.832031  -1408.831787  -9374.998047     43.801308
   12177           0      1408.832031  -1408.831787  -9625.000000     44.111107
   12178           0      1408.832031  -1408.831787  -9875.000000     44.754864
   12179           0      1408.832031  -1408.831787  -10125.00000     45.737297
   12180           0      1408.832031  -1408.831787  -10375.00000     47.070694
   12181           0      1408.832031  -1408.831787  -10624.99804     48.724102
   12182           0      1408.832031  -1408.831787  -10875.00195     50.666241
   12183           0      1408.832031  -1408.831787  -11125.00195     52.857952
   12184           0      1408.832031  -1408.831787  -11375.00000     55.224121
   12185           0      1408.832031  -1408.831787  -11625.00000     57.768028
   12186           0      1408.832031  -1408.831787  -11875.00000     60.353161
   12187           0      1408.832031  -1408.831787  -12125.00000     63.074387
   12188           0      1408.832031  -1408.831787  -12375.00000     65.754944
   12189           0      1408.832031  -1408.831787  -12625.00000     68.391869
   12190           0      1408.832031  -1408.831787  -12874.99804     71.101105
   12191           0      1408.832153  -1408.831787  -13124.99609     75.000244
   12192           0      1408.832153  -1408.831787  -13374.99804     70.900261
   12193           0      1491.003296  -1326.660645   -124.999992     17.154510
   12194           0      1491.003296  -1326.660645   -375.000000     15.931206
   12195           0      1491.003296  -1326.660645   -625.000000     16.155098
   12196           0      1491.003296  -1326.660645   -874.999939     15.529144
   12197           0      1491.003296  -1326.660645  -1125.000000     15.222667
   12198           0      1491.003296  -1326.660645  -1375.000122     15.541769
   12199           0      1491.003296  -1326.660645  -1625.000000     16.038153
   12200           0      1491.003296  -1326.660645  -1874.999756     17.232510
   12201           0      1491.003296  -1326.660645  -2125.000000     18.820816
   12202           0      1491.003296  -1326.660645  -2375.000000     20.949593
   12203           0      1491.003296  -1326.660645  -2625.000000     23.418287
   12204           0      1491.003296  -1326.660645  -2874.999756     26.182232
   12205           0      1491.003296  -1326.660645  -3125.000000     29.102299
   12206           0      1491.003296  -1326.660645  -3375.000244     32.086346
   12207           0      1491.003296  -1326.660645  -3625.000000     35.047817
   12208           0      1491.003296  -1326.660645  -3875.000000     37.905460
   12209           0      1491.003296  -1326.660645  -4125.000000     40.611492
   12210           0      1491.003296  -1326.660645  -4375.000000     43.109520
   12211           0      1491.003296  -1326.660645  -4625.000000     45.377518
   12212           0      1491.003296  -1326.660645  -4875.000000     47.382420
   12213           0      1491.003296  -1326.660645  -5125.000000     49.117943
   12214           0      1491.003296  -1326.660645  -5375.000000     50.569542
   12215           0      1491.003296  -1326.660645  -5625.000000     51.738972
   12216           0      1491.003296  -1326.660645  -5875.000488     52.625904
   12217           0      1491.003296  -1326.660645  -6125.000488     53.237797
   12218           0      1491.003296  -1326.660645  -6375.000000     53.583374
   12219           0      1491.003296  -1326.660645  -6625.000000     53.674862
   12220           0      1491.003296  -1326.660645  -6875.000000     53.529770
   12221           0      1491.003296  -1326.660645  -7124.999512     53.166271
   12222           0      1491.003296  -1326.660645  -7374.999023     52.609226
   12223           0      1491.003296  -1326.660645  -7625.000000     51.887028
   12224           0      1491.003296  -1326.660645  -7875.000000     51.034504
   12225           0      1491.003296  -1326.660645  -8125.000000     50.094303
   12226           0      1491.003296  -1326.660645  -8375.000000     49.114201
   12227           0      1491.003296  -1326.660645  -8625.000000     48.156891
   12228           0      1491.003296  -1326.660645  -8875.000000     47.284702
   12229           0      1491.003296  -1326.660645  -9125.000000     46.580742
   12230           0      1491.003296  -1326.660645  -9375.000000     46.113861
   12231           0      1491.003296  -1326.660645  -9625.000000     45.978313
   12232           0      1491.003296  -1326.660645  -9875.000000     46.221340
   12233           0      1491.003296  -1326.660645  -10124.99902     46.921642
   12234           0      1491.003296  -1326.660645  -10374.99902     48.069820
   12235           0      1491.003296  -1326.660645  -10625.00000     49.700089
   12236           0      1491.003296  -1326.660645  -10875.00000     51.740181
   12237           0      1491.003296  -1326.660645  -11125.00000     54.172356
   12238           0      1491.003296  -1326.660645  -11375.00000     56.911804
   12239           0      1491.003296  -1326.660645  -11625.00000     59.881565
   12240           0      1491.003296  -1326.660645  -11875.00000     63.080620
   12241           0      1491.003296  -1326.660645  -12125.00000     66.326576
   12242           0      1491.003296  -1326.660645  -12374.99902     69.773361
   12243           0      1491.003296  -1326.660645  -12625.00000     73.006157
   12244           0      1491.003296  -1326.660645  -12874.99902     77.121567
   12245           0      1491.003296  -1326.660645  -13124.99902     78.883133
   12246           0      1491.003296  -1326.660645  -13374.99902     80.133820
   12247           0      1565.416016  -1237.979126   -124.999985     27.758295
   12248           0      1565.416016  -1237.979126   -375.000000     28.414078
   12249           0      1565.416016  -1237.979126   -624.999939     25.946259
   12250           0      1565.416016  -1237.979126   -875.000000     23.485828
   12251           0      1565.416016  -1237.979126  -1125.000000     21.169767
   12252           0      1565.416016  -1237.979126  -1375.000122     19.597599
   12253           0      1565.416016  -1237.979126  -1625.000000     18.191057
   12254           0      1565.416016  -1237.979126  -1874.999756     17.756712
   12255           0      1565.416016  -1237.979126  -2125.000000     18.083614
   12256           0      1565.416016  -1237.979126  -2375.000244     19.337109
   12257           0      1565.416016  -1237.979126  -2624.999756     21.304874
   12258           0      1565.416016  -1237.979126  -2874.999512     23.792830
   12259           0      1565.416016  -1237.979126  -3124.999756     26.582857
   12260           0      1565.416016  -1237.979126  -3375.000244     29.506353
   12261           0      1565.416016  -1237.979126  -3625.000244     32.424690
   12262           0      1565.416016  -1237.979126  -3875.000244     35.250816
   12263           0      1565.416016  -1237.979126  -4125.000000     37.905571
   12264           0      1565.416016  -1237.979126  -4375.000000     40.351795
   12265           0      1565.416016  -1237.979126  -4625.000000     42.547237
   12266           0      1565.416016  -1237.979126  -4875.000000     44.479763
   12267           0      1565.416016  -1237.979126  -5124.999512     46.130306
   12268           0      1565.416016  -1237.979126  -5374.999512     47.499092
   12269           0      1565.416016  -1237.979126  -5625.000000     48.581650
   12270           0      1565.416016  -1237.979126  -5875.000488     49.384678
   12271           0      1565.416016  -1237.979126  -6125.000977     49.913525
   12272           0      1565.416016  -1237.979126  -6375.000488     50.179035
   12273           0      1565.416016  -1237.979126  -6625.000000     50.195492
   12274           0      1565.416016  -1237.979126  -6875.000488     49.977898
   12275           0      1565.416016  -1237.979126  -7124.999512     49.549625
   12276           0      1565.416016  -1237.979126  -7374.999023     48.933460
   12277           0      1565.416016  -1237.979126  -7625.000000     48.163773
   12278           0      1565.416016  -1237.979126  -7875.000000     47.275555
   12279           0      1565.416016  -1237.979126  -8124.999023     46.319374
   12280           0      1565.416016  -1237.979126  -8374.999023     45.348160
   12281           0      1565.416016  -1237.979126  -8625.000000     44.433659
   12282           0      1565.416016  -1237.979126  -8875.000977     43.651447
   12283           0      1565.416016  -1237.979126  -9125.000000     43.091473
   12284           0      1565.416016  -1237.979126  -9374.999023     42.849842
   12285           0      1565.416016  -1237.979126  -9625.000000     43.008816
   12286           0      1565.416016  -1237.979126  -9875.000000     43.664455
   12287           0      1565.416016  -1237.979126  -10125.00000     44.841351
   12288           0      1565.416016  -1237.979126  -10375.00000     46.611546
   12289           0      1565.416016  -1237.979126  -10624.99902     48.893417
   12290           0      1565.416016  -1237.979126  -10875.00097     51.747604
   12291           0      1565.416016  -1237.979126  -11125.00097     54.981949
   12292           0      1565.416016  -1237.979126  -11375.00000     58.688648
   12293           0      1565.416016  -1237.979126  -11625.00000     62.601685
   12294           0      1565.416016  -1237.979126  -11875.00000     66.852509
   12295           0      1565.416016  -1237.979126  -12125.00000     71.231224
   12296           0      1565.416016  -1237.979126  -12374.99902     75.669090
   12297           0      1565.416016  -1237.979126  -12625.00000     80.219780
   12298           0      1565.416016  -1237.979126  -12874.99902     85.866516
   12299           0      1565.416016  -1237.979126  -13124.99804     86.727592
   12300           0      1565.416016  -1237.979126  -13374.99902     94.598694
   12301           0      1632.069946  -1142.787354   -124.999985     46.445934
   12302           0      1632.069946  -1142.787354   -374.999969     46.809410
   12303           0      1632.069946  -1142.787354   -624.999939     41.539833
   12304           0      1632.069946  -1142.787354   -874.999878     36.587585
   12305           0      1632.069946  -1142.787354  -1124.999878     31.913675
   12306           0      1632.069946  -1142.787354  -1375.000244     27.328739
   12307           0      1632.069946  -1142.787354  -1625.000000     22.787630
   12308           0      1632.069946  -1142.787354  -1874.999512     18.725164
   12309           0      1632.069946  -1142.787354  -2125.000244     15.237349
   12310           0      1632.069946  -1142.787354  -2375.000244     13.029073
   12311           0      1632.069946  -1142.787354  -2624.999756     12.533415
   12312           0      1632.069946  -1142.787354  -2874.999512     13.831687
   12313           0      1632.069946  -1142.787354  -3124.999512     16.292007
   12314           0      1632.069946  -1142.787354  -3375.000488     19.294901
   12315           0      1632.069946  -1142.787354  -3625.000488     22.460173
   12316           0      1632.069946  -1142.787354  -3875.000244     25.571892
   12317           0      1632.069946  -1142.787354  -4125.000488     28.524862
   12318           0      1632.069946  -1142.787354  -4375.000488     31.250572
   12319           0      1632.069946  -1142.787354  -4625.000488     33.714573
   12320           0      1632.069946  -1142.787354  -4874.999512     35.894432
   12321           0      1632.069946  -1142.787354  -5124.999512     37.775818
   12322           0      1632.069946  -1142.787354  -5374.999023     39.354286
   12323           0      1632.069946  -1142.787354  -5625.000000     40.624504
   12324           0      1632.069946  -1142.787354  -5875.000977     41.590839
   12325           0      1632.069946  -1142.787354  -6125.000977     42.253765
   12326           0      1632.069946  -1142.787354  -6375.000000     42.625618
   12327           0      1632.069946  -1142.787354  -6625.000000     42.712719
   12328           0      1632.069946  -1142.787354  -6875.000977     42.536980
   12329           0      1632.069946  -1142.787354  -7124.999023     42.113495
   12330           0      1632.069946  -1142.787354  -7374.998535     41.477901
   12331           0      1632.069946  -1142.787354  -7625.000000     40.658863
   12332           0      1632.069946  -1142.787354  -7875.000000     39.714642
   12333           0      1632.069946  -1142.787354  -8124.999023     38.694374
   12334           0      1632.069946  -1142.787354  -8374.999023     37.691509
   12335           0      1632.069946  -1142.787354  -8625.000000     36.782394
   12336           0      1632.069946  -1142.787354  -8875.000977     36.105228
   12337           0      1632.069946  -1142.787354  -9125.000000     35.760197
   12338           0      1632.069946  -1142.787354  -9374.998047     35.909870
   12339           0      1632.069946  -1142.787354  -9625.000000     36.639606
   12340           0      1632.069946  -1142.787354  -9875.000000     38.067902
   12341           0      1632.069946  -1142.787354  -10125.00000     40.213634
   12342           0      1632.069946  -1142.787354  -10375.00000     43.080990
   12343           0      1632.069946  -1142.787354  -10624.99804     46.644863
   12344           0      1632.069946  -1142.787354  -10875.00195     50.777645
   12345           0      1632.069946  -1142.787354  -11125.00195     55.515182
   12346           0      1632.069946  -1142.787354  -11375.00000     60.565792
   12347           0      1632.069946  -1142.787354  -11625.00000     66.166389
   12348           0      1632.069946  -1142.787354  -11875.00000     71.747841
   12349           0      1632.069946  -1142.787354  -12125.00000     77.936180
   12350           0      1632.069946  -1142.787354  -12375.00000     83.795982
   12351           0      1632.069946  -1142.787354  -12625.00000     90.066200
   12352           0      1632.069946  -1142.787354  -12874.99804     96.485176
   12353           0      1632.069946  -1142.787354  -13124.99609    104.014313
   12354           0      1632.069946  -1142.787354  -13374.99804    101.366997
   12355           0      1698.723877  -1047.595581   -124.999992     70.709061
   12356           0      1698.723877  -1047.595581   -375.000000     61.344612
   12357           0      1698.723877  -1047.595581   -625.000000     58.185013
   12358           0      1698.723877  -1047.595581   -874.999939     49.989609
   12359           0      1698.723877  -1047.595581  -1125.000000     43.944031
   12360           0      1698.723877  -1047.595581  -1375.000122     37.010109
   12361           0      1698.723877  -1047.595581  -1625.000000     30.820127
   12362           0      1698.723877  -1047.595581  -1874.999756     24.428295
   12363           0      1698.723877  -1047.595581  -2125.000000     18.787838
   12364           0      1698.723877  -1047.595581  -2375.000000     13.931818
   12365           0      1698.723877  -1047.595581  -2625.000000     11.115260
   12366           0      1698.723877  -1047.595581  -2874.999756     11.366172
   12367           0      1698.723877  -1047.595581  -3125.000000     14.178340
   12368           0      1698.723877  -1047.595581  -3375.000244     18.115143
   12369           0      1698.723877  -1047.595581  -3625.000000     22.328028
   12370           0      1698.723877  -1047.595581  -3875.000000     26.478909
   12371           0      1698.723877  -1047.595581  -4125.000000     30.419331
   12372           0      1698.723877  -1047.595581  -4375.000000     34.066185
   12373           0      1698.723877  -1047.595581  -4625.000000     37.390945
   12374           0      1698.723877  -1047.595581  -4875.000000     40.355431
   12375           0      1698.723877  -1047.595581  -5125.000000     42.957535
   12376           0      1698.723877  -1047.595581  -5375.000000     45.174599
   12377           0      1698.723877  -1047.595581  -5625.000000     47.011421
   12378           0      1698.723877  -1047.595581  -5875.000488     48.455894
   12379           0      1698.723877  -1047.595581  -6125.000488     49.516552
   12380           0      1698.723877  -1047.595581  -6375.000000     50.189651
   12381           0      1698.723877  -1047.595581  -6625.000000     50.488235
   12382           0      1698.723877  -1047.595581  -6875.000000     50.419468
   12383           0      1698.723877  -1047.595581  -7124.999512     50.004353
   12384           0      1698.723877  -1047.595581  -7374.999023     49.262146
   12385           0      1698.723877  -1047.595581  -7625.000000     48.229759
   12386           0      1698.723877  -1047.595581  -7875.000000     46.945587
   12387           0      1698.723877  -1047.595581  -8125.000000     45.474262
   12388           0      1698.723877  -1047.595581  -8375.000000     43.884007
   12389           0      1698.723877  -1047.595581  -8625.000000     42.288792
   12390           0      1698.723877  -1047.595581  -8875.000000     40.802471
   12391           0      1698.723877  -1047.595581  -9125.000000     39.609520
   12392           0      1698.723877  -1047.595581  -9375.000000     38.867393
   12393           0      1698.723877  -1047.595581  -9625.000000     38.815712
   12394           0      1698.723877  -1047.595581  -9875.000000     39.581280
   12395           0      1698.723877  -1047.595581  -10124.99902     41.346111
   12396           0      1698.723877  -1047.595581  -10374.99902     44.090034
   12397           0      1698.723877  -1047.595581  -10625.00000     47.837875
   12398           0      1698.723877  -1047.595581  -10875.00000     52.458176
   12399           0      1698.723877  -1047.595581  -11125.00000     57.829056
   12400           0      1698.723877  -1047.595581  -11375.00000     63.889740
   12401           0      1698.723877  -1047.595581  -11625.00000     70.322105
   12402           0      1698.723877  -1047.595581  -11875.00000     77.374184
   12403           0      1698.723877  -1047.595581  -12125.00000     84.320992
   12404           0      1698.723877  -1047.595581  -12374.99902     92.115654
   12405           0      1698.723877  -1047.595581  -12625.00000     98.981857
   12406           0      1698.723877  -1047.595581  -12874.99902    108.370110
   12407           0      1698.723877  -1047.595581  -13124.99902    113.267151
   12408           0      1698.723877  -1047.595581  -13374.99902    118.647446
   12409           0      1756.606689   -947.339722   -124.999985     86.140945
   12410           0      1756.606689   -947.339722   -375.000000     76.044891
   12411           0      1756.606689   -947.339722   -624.999939     71.059769
   12412           0      1756.606689   -947.339722   -875.000000     60.998848
   12413           0      1756.606689   -947.339722  -1125.000000     52.896381
   12414           0      1756.606689   -947.339722  -1375.000122     44.325943
   12415           0      1756.606689   -947.339722  -1625.000000     36.115967
   12416           0      1756.606689   -947.339722  -1874.999756     27.783161
   12417           0      1756.606689   -947.339722  -2125.000000     19.976948
   12418           0      1756.606689   -947.339722  -2375.000244     12.436846
   12419           0      1756.606689   -947.339722  -2624.999756      6.647019
   12420           0      1756.606689   -947.339722  -2874.999512      6.850630
   12421           0      1756.606689   -947.339722  -3124.999756     12.252131
   12422           0      1756.606689   -947.339722  -3375.000244     18.425993
   12423           0      1756.606689   -947.339722  -3625.000244     24.379147
   12424           0      1756.606689   -947.339722  -3875.000244     30.064222
   12425           0      1756.606689   -947.339722  -4125.000000     35.295898
   12426           0      1756.606689   -947.339722  -4375.000000     40.141415
   12427           0      1756.606689   -947.339722  -4625.000000     44.498646
   12428           0      1756.606689   -947.339722  -4875.000000     48.422825
   12429           0      1756.606689   -947.339722  -5124.999512     51.850212
   12430           0      1756.606689   -947.339722  -5374.999512     54.820835
   12431           0      1756.606689   -947.339722  -5625.000000     57.295105
   12432           0      1756.606689   -947.339722  -5875.000488     59.302040
   12433           0      1756.606689   -947.339722  -6125.000977     60.820480
   12434           0      1756.606689   -947.339722  -6375.000488     61.872295
   12435           0      1756.606689   -947.339722  -6625.000000     62.451790
   12436           0      1756.606689   -947.339722  -6875.000488     62.577374
   12437           0      1756.606689   -947.339722  -7124.999512     62.259598
   12438           0      1756.606689   -947.339722  -7374.999023     61.517170
   12439           0      1756.606689   -947.339722  -7625.000000     60.381477
   12440           0      1756.606689   -947.339722  -7875.000000     58.878765
   12441           0      1756.606689   -947.339722  -8124.999023     57.069691
   12442           0      1756.606689   -947.339722  -8374.999023     55.002434
   12443           0      1756.606689   -947.339722  -8625.000000     52.782211
   12444           0      1756.606689   -947.339722  -8875.000977     50.505848
   12445           0      1756.606689   -947.339722  -9125.000000     48.346169
   12446           0      1756.606689   -947.339722  -9374.999023     46.485893
   12447           0      1756.606689   -947.339722  -9625.000000     45.169006
   12448           0      1756.606689   -947.339722  -9875.000000     44.669628
   12449           0      1756.606689   -947.339722  -10125.00000     45.191116
   12450           0      1756.606689   -947.339722  -10375.00000     46.990036
   12451           0      1756.606689   -947.339722  -10624.99902     49.983387
   12452           0      1756.606689   -947.339722  -10875.00097     54.342381
   12453           0      1756.606689   -947.339722  -11125.00097     59.606342
   12454           0      1756.606689   -947.339722  -11375.00000     66.058250
   12455           0      1756.606689   -947.339722  -11625.00000     72.909645
   12456           0      1756.606689   -947.339722  -11875.00000     80.798325
   12457           0      1756.606689   -947.339722  -12125.00000     88.614021
   12458           0      1756.606689   -947.339722  -12374.99902     97.387581
   12459           0      1756.606689   -947.339722  -12625.00000    105.627953
   12460           0      1756.606689   -947.339722  -12874.99902    116.714317
   12461           0      1756.606689   -947.339722  -13124.99804    119.736229
   12462           0      1756.606689   -947.339722  -13374.99902    135.715561
   12463           0      1805.718140   -842.019836   -124.999985     92.528252
   12464           0      1805.718140   -842.019836   -374.999969     91.035912
   12465           0      1805.718140   -842.019836   -624.999939     80.363136
   12466           0      1805.718140   -842.019836   -874.999878     69.638908
   12467           0      1805.718140   -842.019836  -1124.999878     59.630367
   12468           0      1805.718140   -842.019836  -1375.000244     50.248672
   12469           0      1805.718140   -842.019836  -1625.000000     40.785858
   12470           0      1805.718140   -842.019836  -1874.999512     32.944534
   12471           0      1805.718140   -842.019836  -2125.000244     26.473087
   12472           0      1805.718140   -842.019836  -2375.000244     23.130318
   12473           0      1805.718140   -842.019836  -2624.999756     23.345556
   12474           0      1805.718140   -842.019836  -2874.999512     26.684910
   12475           0      1805.718140   -842.019836  -3124.999512     31.814632
   12476           0      1805.718140   -842.019836  -3375.000488     37.593414
   12477           0      1805.718140   -842.019836  -3625.000488     43.570179
   12478           0      1805.718140   -842.019836  -3875.000244     49.343945
   12479           0      1805.718140   -842.019836  -4125.000488     54.853226
   12480           0      1805.718140   -842.019836  -4375.000488     59.935608
   12481           0      1805.718140   -842.019836  -4625.000488     64.603729
   12482           0      1805.718140   -842.019836  -4874.999512     68.779739
   12483           0      1805.718140   -842.019836  -5124.999512     72.486282
   12484           0      1805.718140   -842.019836  -5374.999023     75.685493
   12485           0      1805.718140   -842.019836  -5625.000000     78.396858
   12486           0      1805.718140   -842.019836  -5875.000977     80.604431
   12487           0      1805.718140   -842.019836  -6125.000977     82.322159
   12488           0      1805.718140   -842.019836  -6375.000000     83.547821
   12489           0      1805.718140   -842.019836  -6625.000000     84.291115
   12490           0      1805.718140   -842.019836  -6875.000977     84.560684
   12491           0      1805.718140   -842.019836  -7124.999023     84.363144
   12492           0      1805.718140   -842.019836  -7374.998535     83.718239
   12493           0      1805.718140   -842.019836  -7625.000000     82.632576
   12494           0      1805.718140   -842.019836  -7875.000000     81.141609
   12495           0      1805.718140   -842.019836  -8124.999023     79.257172
   12496           0      1805.718140   -842.019836  -8374.999023     77.038826
   12497           0      1805.718140   -842.019775  -8625.000000     74.513680
   12498           0      1805.718140   -842.019775  -8875.000977     71.783714
   12499           0      1805.718140   -842.019775  -9125.000000     68.909050
   12500           0      1805.718140   -842.019775  -9374.998047     66.060074
   12501           0      1805.718140   -842.019775  -9625.000000     63.359997
   12502           0      1805.718140   -842.019775  -9875.000000     61.075287
   12503           0      1805.718140   -842.019775  -10125.00000     59.417397
   12504           0      1805.718140   -842.019775  -10375.00000     58.710331
   12505           0      1805.718140   -842.019775  -10624.99804     59.212063
   12506           0      1805.718140   -842.019775  -10875.00195     61.093498
   12507           0      1805.718140   -842.019775  -11125.00195     64.558319
   12508           0      1805.718140   -842.019775  -11375.00000     69.347160
   12509           0      1805.718140   -842.019775  -11625.00000     75.736420
   12510           0      1805.718140   -842.019775  -11875.00000     82.895897
   12511           0      1805.718140   -842.019775  -12125.00000     91.576477
   12512           0      1805.718140   -842.019775  -12375.00000    100.320953
   12513           0      1805.718140   -842.019775  -12625.00000    110.083847
   12514           0      1805.718140   -842.019775  -12874.99804    120.603249
   12515           0      1805.718140   -842.019775  -13124.99609    131.998917
   12516           0      1805.718140   -842.019836  -13374.99804    131.864410
   12517           0      1854.829468   -736.699951   -124.999992    110.682014
   12518           0      1854.829468   -736.699951   -375.000000     98.846748
   12519           0      1854.829468   -736.699951   -625.000000     91.204163
   12520           0      1854.829468   -736.699951   -874.999939     77.230606
   12521           0      1854.829468   -736.699951  -1125.000000     66.870102
   12522           0      1854.829468   -736.699951  -1375.000122     55.362217
   12523           0      1854.829468   -736.699951  -1625.000000     46.151001
   12524           0      1854.829468   -736.699951  -1874.999756     38.684387
   12525           0      1854.829468   -736.699951  -2125.000000     35.009270
   12526           0      1854.829468   -736.699951  -2375.000000     35.255047
   12527           0      1854.829468   -736.699951  -2625.000000     38.904385
   12528           0      1854.829468   -736.699951  -2874.999756     44.658970
   12529           0      1854.829468   -736.699951  -3125.000000     51.284176
   12530           0      1854.829468   -736.699951  -3375.000244     58.229183
   12531           0      1854.829468   -736.699951  -3625.000000     65.000603
   12532           0      1854.829468   -736.699951  -3875.000000     71.490822
   12533           0      1854.829468   -736.699951  -4125.000000     77.510597
   12534           0      1854.829468   -736.699951  -4375.000000     83.060768
   12535           0      1854.829468   -736.699951  -4625.000000     88.063370
   12536           0      1854.829468   -736.699951  -4875.000000     92.541649
   12537           0      1854.829468   -736.699951  -5125.000000     96.465126
   12538           0      1854.829468   -736.699951  -5375.000000     99.857475
   12539           0      1854.829468   -736.699951  -5625.000000    102.710190
   12540           0      1854.829468   -736.699951  -5875.000488    105.042244
   12541           0      1854.829468   -736.699951  -6125.000488    106.855789
   12542           0      1854.829468   -736.699951  -6375.000000    108.162552
   12543           0      1854.829468   -736.699951  -6625.000000    108.970413
   12544           0      1854.829468   -736.699951  -6875.000000    109.284798
   12545           0      1854.829468   -736.699951  -7124.999512    109.117455
   12546           0      1854.829468   -736.699951  -7374.999023    108.468201
   12547           0      1854.829468   -736.699951  -7625.000000    107.354149
   12548           0      1854.829468   -736.699951  -7875.000000    105.772072
   12549           0      1854.829468   -736.699951  -8125.000000    103.749550
   12550           0      1854.829468   -736.699951  -8375.000000    101.283752
   12551           0      1854.829468   -736.699951  -8625.000000     98.424774
   12552           0      1854.829468   -736.699951  -8875.000000     95.177261
   12553           0      1854.829468   -736.699951  -9125.000000     91.634239
   12554           0      1854.829468   -736.699951  -9375.000000     87.823792
   12555           0      1854.829468   -736.699951  -9625.000000     83.919975
   12556           0      1854.829468   -736.699951  -9875.000000     80.004158
   12557           0      1854.829468   -736.699951  -10124.99902     76.389290
   12558           0      1854.829468   -736.699890  -10374.99902     73.255211
   12559           0      1854.829468   -736.699890  -10625.00000     71.093239
   12560           0      1854.829468   -736.699890  -10875.00000     70.179955
   12561           0      1854.829468   -736.699890  -11125.00000     71.030479
   12562           0      1854.829468   -736.699890  -11375.00000     73.841957
   12563           0      1854.829468   -736.699890  -11625.00000     78.692520
   12564           0      1854.829468   -736.699890  -11875.00000     85.624123
   12565           0      1854.829468   -736.699890  -12125.00000     93.888252
   12566           0      1854.829468   -736.699890  -12374.99902    104.044167
   12567           0      1854.829468   -736.699890  -12625.00000    113.559753
   12568           0      1854.829468   -736.699890  -12874.99902    126.809898
   12569           0      1854.829468   -736.699890  -13124.99902    135.824936
   12570           0      1854.829468   -736.699951  -13374.99902    141.630310
   12571           0      1894.423584   -627.916016   -124.999985    112.242798
   12572           0      1894.423584   -627.916016   -375.000000     95.542404
   12573           0      1894.423584   -627.916016   -624.999939     89.916382
   12574           0      1894.423584   -627.916016   -875.000000     76.896606
   12575           0      1894.423584   -627.916016  -1125.000000     67.388565
   12576           0      1894.423584   -627.916016  -1375.000122     57.819180
   12577           0      1894.423584   -627.916016  -1625.000000     51.516769
   12578           0      1894.423584   -627.916016  -1874.999756     47.919792
   12579           0      1894.423584   -627.916016  -2125.000000     48.329990
   12580           0      1894.423584   -627.916016  -2375.000244     51.632900
   12581           0      1894.423584   -627.916016  -2624.999756     57.016880
   12582           0      1894.423584   -627.916016  -2874.999512     63.422142
   12583           0      1894.423584   -627.916016  -3124.999756     70.172211
   12584           0      1894.423584   -627.916016  -3375.000244     76.889977
   12585           0      1894.423584   -627.916016  -3625.000244     83.294876
   12586           0      1894.423584   -627.916016  -3875.000244     89.300186
   12587           0      1894.423584   -627.916016  -4125.000000     94.801025
   12588           0      1894.423584   -627.916016  -4375.000000     99.799812
   12589           0      1894.423584   -627.916016  -4625.000000    104.263260
   12590           0      1894.423584   -627.916016  -4875.000000    108.217995
   12591           0      1894.423584   -627.916016  -5124.999512    111.660339
   12592           0      1894.423584   -627.916016  -5374.999512    114.619659
   12593           0      1894.423584   -627.916016  -5625.000000    117.103142
   12594           0      1894.423584   -627.916016  -5875.000488    119.135399
   12595           0      1894.423584   -627.916016  -6125.000977    120.725517
   12596           0      1894.423584   -627.916016  -6375.000488    121.891739
   12597           0      1894.423584   -627.916016  -6625.000000    122.641060
   12598           0      1894.423584   -627.916016  -6875.000488    122.983948
   12599           0      1894.423584   -627.916016  -7124.999512    122.923424
   12600           0      1894.423584   -627.916016  -7374.999023    122.465034
   12601           0      1894.423584   -627.916016  -7625.000000    121.607239
   12602           0      1894.423584   -627.916016  -7875.000000    120.352303
   12603           0      1894.423584   -627.916016  -8124.999023    118.697258
   12604           0      1894.423584   -627.916016  -8374.999023    116.645622
   12605           0      1894.423584   -627.916016  -8625.000000    114.198257
   12606           0      1894.423584   -627.916016  -8875.000977    111.367233
   12607           0      1894.423584   -627.916016  -9125.000000    108.169670
   12608           0      1894.423584   -627.916016  -9374.999023    104.643150
   12609           0      1894.423584   -627.916016  -9625.000000    100.840103
   12610           0      1894.423584   -627.916016  -9875.000000     96.856430
   12611           0      1894.423584   -627.916016  -10125.00000     92.817337
   12612           0      1894.423584   -627.916016  -10375.00000     88.938225
   12613           0      1894.423584   -627.916016  -10624.99902     85.460419
   12614           0      1894.423584   -627.916016  -10875.00097     82.807861
   12615           0      1894.423584   -627.916016  -11125.00097     81.291618
   12616           0      1894.423584   -627.916016  -11375.00000     81.568283
   12617           0      1894.423584   -627.916016  -11625.00000     83.606750
   12618           0      1894.423584   -627.916016  -11875.00000     88.172684
   12619           0      1894.423584   -627.916016  -12125.00000     94.117905
   12620           0      1894.423584   -627.916016  -12374.99902    102.546745
   12621           0      1894.423584   -627.916016  -12625.00000    110.765625
   12622           0      1894.423584   -627.916016  -12874.99902    122.627975
   12623           0      1894.423584   -627.916016  -13124.99804    126.660767
   12624           0      1894.423584   -627.916016  -13374.99902    145.688248
   12625           0      1924.500366   -515.667969   -124.999985     86.467606
   12626           0      1924.500366   -515.667969   -374.999969     85.448425
   12627           0      1924.500366   -515.667969   -624.999939     77.329987
   12628           0      1924.500366   -515.667969   -874.999878     69.012909
   12629           0      1924.500366   -515.667969  -1124.999878     63.612637
   12630           0      1924.500366   -515.667969  -1375.000244     60.892899
   12631           0      1924.500366   -515.667969  -1625.000000     60.813633
   12632           0      1924.500366   -515.667969  -1874.999512     63.457256
   12633           0      1924.500366   -515.667969  -2125.000244     67.715546
   12634           0      1924.500366   -515.667969  -2375.000244     73.028526
   12635           0      1924.500366   -515.667969  -2624.999756     78.725212
   12636           0      1924.500366   -515.667969  -2874.999512     84.428841
   12637           0      1924.500366   -515.667969  -3124.999512     89.903046
   12638           0      1924.500366   -515.667969  -3375.000488     94.988541
   12639           0      1924.500366   -515.667969  -3625.000488     99.642578
   12640           0      1924.500366   -515.667969  -3875.000244    103.815956
   12641           0      1924.500366   -515.667969  -4125.000488    107.536301
   12642           0      1924.500366   -515.667969  -4375.000488    110.802513
   12643           0      1924.500366   -515.667969  -4625.000488    113.661354
   12644           0      1924.500366   -515.667969  -4874.999512    116.129883
   12645           0      1924.500366   -515.667969  -5124.999512    118.253799
   12646           0      1924.500366   -515.667969  -5374.999023    120.053780
   12647           0      1924.500366   -515.667969  -5625.000000    121.568527
   12648           0      1924.500366   -515.667969  -5875.000977    122.814499
   12649           0      1924.500366   -515.667969  -6125.000977    123.820038
   12650           0      1924.500366   -515.667969  -6375.000000    124.595970
   12651           0      1924.500366   -515.667969  -6625.000000    125.159698
   12652           0      1924.500366   -515.667969  -6875.000977    125.514801
   12653           0      1924.500366   -515.667969  -7124.999023    125.668579
   12654           0      1924.500366   -515.667969  -7374.998535    125.616669
   12655           0      1924.500366   -515.667969  -7625.000000    125.357582
   12656           0      1924.500366   -515.667969  -7875.000000    124.879524
   12657           0      1924.500366   -515.667969  -8124.999023    124.173782
   12658           0      1924.500366   -515.667969  -8374.999023    123.222702
   12659           0      1924.500366   -515.667969  -8625.000000    122.012535
   12660           0      1924.500366   -515.667969  -8875.000977    120.524139
   12661           0      1924.500366   -515.667969  -9125.000000    118.745544
   12662           0      1924.500366   -515.667969  -9374.998047    116.661636
   12663           0      1924.500366   -515.667969  -9625.000000    114.274529
   12664           0      1924.500366   -515.667969  -9875.000000    111.589752
   12665           0      1924.500366   -515.667969  -10125.00000    108.646782
   12666           0      1924.500366   -515.667969  -10375.00000    105.498474
   12667           0      1924.500366   -515.667969  -10624.99804    102.265862
   12668           0      1924.500366   -515.667969  -10875.00195     99.090111
   12669           0      1924.500366   -515.667969  -11125.00195     96.235542
   12670           0      1924.500366   -515.667969  -11375.00000     93.952553
   12671           0      1924.500366   -515.667969  -11625.00000     92.680519
   12672           0      1924.500366   -515.667969  -11875.00000     92.630081
   12673           0      1924.500366   -515.667969  -12125.00000     94.312378
   12674           0      1924.500366   -515.667969  -12375.00000     97.494026
   12675           0      1924.500366   -515.667969  -12625.00000    102.408142
   12676           0      1924.500366   -515.667969  -12874.99804    108.460571
   12677           0      1924.500366   -515.667969  -13124.99609    116.382889
   12678           0      1924.500366   -515.667969  -13374.99804    115.996765
   12679           0      1954.577148   -403.420013   -124.999992     68.191124
   12680           0      1954.577148   -403.420013   -375.000000     71.217690
   12681           0      1954.577148   -403.420013   -625.000000     65.631470
   12682           0      1954.577148   -403.420013   -874.999939     60.081566
   12683           0      1954.577148   -403.420013  -1125.000000     60.495598
   12684           0      1954.577148   -403.420013  -1375.000122     64.354195
   12685           0      1954.577148   -403.420013  -1625.000000     70.509636
   12686           0      1954.577148   -403.420013  -1874.999756     77.660393
   12687           0      1954.577148   -403.420013  -2125.000000     84.769691
   12688           0      1954.577148   -403.420013  -2375.000000     91.443619
   12689           0      1954.577148   -403.420013  -2625.000000     97.415474
   12690           0      1954.577148   -403.420013  -2874.999756    102.641617
   12691           0      1954.577148   -403.420013  -3125.000000    107.095383
   12692           0      1954.577148   -403.420013  -3375.000244    110.842918
   12693           0      1954.577148   -403.420013  -3625.000000    113.928886
   12694           0      1954.577148   -403.420013  -3875.000000    116.448784
   12695           0      1954.577148   -403.420013  -4125.000000    118.466187
   12696           0      1954.577148   -403.420013  -4375.000000    120.075378
   12697           0      1954.577148   -403.420013  -4625.000000    121.337471
   12698           0      1954.577148   -403.420013  -4875.000000    122.332962
   12699           0      1954.577148   -403.420013  -5125.000000    123.112213
   12700           0      1954.577148   -403.420013  -5375.000000    123.737907
   12701           0      1954.577148   -403.420013  -5625.000000    124.246307
   12702           0      1954.577148   -403.420013  -5875.000488    124.682526
   12703           0      1954.577148   -403.420013  -6125.000488    125.069389
   12704           0      1954.577148   -403.420013  -6375.000000    125.434151
   12705           0      1954.577148   -403.420013  -6625.000000    125.787338
   12706           0      1954.577148   -403.420013  -6875.000000    126.140327
   12707           0      1954.577148   -403.420013  -7124.999512    126.492470
   12708           0      1954.577148   -403.420013  -7374.999023    126.838394
   12709           0      1954.577148   -403.420013  -7625.000000    127.167648
   12710           0      1954.577148   -403.420013  -7875.000000    127.458855
   12711           0      1954.577148   -403.420013  -8125.000000    127.691528
   12712           0      1954.577148   -403.420013  -8375.000000    127.827377
   12713           0      1954.577148   -403.420013  -8625.000000    127.836754
   12714           0      1954.577148   -403.420013  -8875.000000    127.665627
   12715           0      1954.577148   -403.420013  -9125.000000    127.275421
   12716           0      1954.577148   -403.420013  -9375.000000    126.598068
   12717           0      1954.577148   -403.420013  -9625.000000    125.592842
   12718           0      1954.577148   -403.420013  -9875.000000    124.183029
   12719           0      1954.577148   -403.420013  -10124.99902    122.339340
   12720           0      1954.577148   -403.420013  -10374.99902    119.989586
   12721           0      1954.577148   -403.420013  -10625.00000    117.147995
   12722           0      1954.577148   -403.420013  -10875.00000    113.770576
   12723           0      1954.577148   -403.419983  -11125.00000    109.986168
   12724           0      1954.577148   -403.419983  -11375.00000    105.811577
   12725           0      1954.577148   -403.419983  -11625.00000    101.659241
   12726           0      1954.577148   -403.419983  -11875.00000     97.640564
   12727           0      1954.577148   -403.419983  -12125.00000     94.788284
   12728           0      1954.577148   -403.419983  -12374.99902     93.256310
   12729           0      1954.577148   -403.419983  -12625.00000     93.924278
   12730           0      1954.577148   -403.419983  -12874.99902     97.681793
   12731           0      1954.577148   -403.419983  -13124.99902    102.992645
   12732           0      1954.577148   -403.420013  -13374.99902     94.977699
   12733           0      1979.795044   -273.648010   -124.999992     43.553886
   12734           0      1979.795044   -273.648010   -375.000000     48.197342
   12735           0      1979.795044   -273.648010   -625.000000     48.842865
   12736           0      1979.795044   -273.648010   -875.000000     51.567986
   12737           0      1979.795044   -273.648010  -1125.000000     57.146317
   12738           0      1979.795044   -273.648010  -1375.000000     63.897892
   12739           0      1979.795044   -273.648010  -1625.000000     71.012558
   12740           0      1979.795044   -273.648010  -1875.000000     77.578957
   12741           0      1979.795044   -273.648010  -2125.000000     83.269844
   12742           0      1979.795044   -273.648010  -2375.000000     87.903000
   12743           0      1979.795044   -273.648010  -2625.000000     91.435387
   12744           0      1979.795044   -273.648010  -2875.000000     93.946449
   12745           0      1979.795044   -273.648010  -3125.000000     95.527512
   12746           0      1979.795044   -273.648010  -3375.000000     96.324722
   12747           0      1979.795044   -273.648010  -3625.000000     96.473640
   12748           0      1979.795044   -273.648010  -3875.000000     96.118355
   12749           0      1979.795044   -273.648010  -4125.000000     95.393181
   12750           0      1979.795044   -273.648010  -4375.000000     94.417755
   12751           0      1979.795044   -273.648010  -4625.000000     93.307426
   12752           0      1979.795044   -273.648010  -4875.000000     92.153000
   12753           0      1979.795044   -273.648010  -5125.000000     91.044327
   12754           0      1979.795044   -273.648010  -5375.000000     90.045120
   12755           0      1979.795044   -273.648010  -5625.000000     89.218330
   12756           0      1979.795044   -273.648010  -5875.000000     88.604088
   12757           0      1979.795044   -273.648010  -6125.000000     88.239853
   12758           0      1979.795044   -273.648010  -6375.000000     88.145905
   12759           0      1979.795044   -273.648010  -6625.000000     88.336174
   12760           0      1979.795044   -273.648010  -6875.000000     88.814186
   12761           0      1979.795044   -273.648010  -7124.999512     89.572632
   12762           0      1979.795044   -273.648010  -7375.000000     90.601730
   12763           0      1979.795044   -273.648010  -7625.000000     91.874374
   12764           0      1979.795044   -273.648010  -7875.000000     93.368088
   12765           0      1979.795044   -273.648010  -8125.000000     95.036392
   12766           0      1979.795044   -273.648010  -8375.000000     96.844933
   12767           0      1979.795044   -273.648010  -8625.000000     98.726089
   12768           0      1979.795044   -273.648010  -8875.000000    100.631226
   12769           0      1979.795044   -273.648010  -9125.000000    102.471306
   12770           0      1979.795044   -273.648010  -9375.000000    104.182243
   12771           0      1979.795044   -273.648010  -9625.000000    105.653435
   12772           0      1979.795044   -273.648010  -9875.000000    106.805962
   12773           0      1979.795044   -273.648010  -10125.00000    107.516647
   12774           0      1979.795044   -273.648010  -10375.00000    107.700249
   12775           0      1979.795044   -273.648010  -10625.00000    107.244286
   12776           0      1979.795044   -273.648010  -10875.00000    106.086891
   12777           0      1979.795044   -273.648010  -11125.00000    104.182976
   12778           0      1979.795044   -273.648010  -11375.00000    101.561447
   12779           0      1979.795044   -273.648010  -11625.00000     98.356667
   12780           0      1979.795044   -273.648010  -11875.00000     94.808105
   12781           0      1979.795044   -273.648010  -12125.00000     91.364983
   12782           0      1979.795044   -273.648010  -12374.99902     88.491432
   12783           0      1979.795044   -273.648010  -12625.00000     86.944008
   12784           0      1979.795044   -273.648010  -12875.00000     86.219490
   12785           0      1979.795044   -273.648010  -13125.00000     88.001564
   12786           0      1979.795044   -273.648010  -13375.00000     81.287941
   12787           0      1994.987305   -100.000000   -124.999992     56.590729
   12788           0      1994.987305   -100.000000   -375.000000     55.667194
   12789           0      1994.987305   -100.000000   -625.000000     55.909477
   12790           0      1994.987305   -100.000000   -875.000000     55.455753
   12791           0      1994.987305   -100.000000  -1125.000000     58.794159
   12792           0      1994.987305   -100.000000  -1375.000000     63.487164
   12793           0      1994.987305   -100.000000  -1625.000000     69.423096
   12794           0      1994.987305   -100.000000  -1875.000000     75.153282
   12795           0      1994.987305   -100.000000  -2125.000000     80.424744
   12796           0      1994.987305   -100.000000  -2375.000000     84.825653
   12797           0      1994.987305   -100.000000  -2625.000000     88.327126
   12798           0      1994.987305   -100.000000  -2875.000000     90.921387
   12799           0      1994.987305   -100.000000  -3125.000000     92.697258
   12800           0      1994.987305   -100.000000  -3375.000000     93.762955
   12801           0      1994.987305   -100.000000  -3625.000000     94.243874
   12802           0      1994.987305   -100.000000  -3875.000000     94.266602
   12803           0      1994.987305   -100.000000  -4125.000000     93.953178
   12804           0      1994.987305   -100.000000  -4375.000000     93.416306
   12805           0      1994.987305   -100.000000  -4625.000000     92.759552
   12806           0      1994.987305   -100.000000  -4875.000000     92.072205
   12807           0      1994.987305   -100.000000  -5125.000000     91.433891
   12808           0      1994.987305   -100.000000  -5375.000000     90.909264
   12809           0      1994.987305   -100.000000  -5625.000000     90.553139
   12810           0      1994.987305   -100.000000  -5875.000000     90.407028
   12811           0      1994.987305   -100.000000  -6125.000000     90.502762
   12812           0      1994.987305   -100.000000  -6375.000000     90.861389
   12813           0      1994.987305   -100.000000  -6625.000000     91.494263
   12814           0      1994.987305   -100.000000  -6875.000000     92.404198
   12815           0      1994.987305   -100.000000  -7124.999512     93.585037
   12816           0      1994.987305   -100.000000  -7375.000000     95.024544
   12817           0      1994.987305   -100.000000  -7625.000000     96.701057
   12818           0      1994.987305   -100.000000  -7875.000000     98.587639
   12819           0      1994.987305   -100.000000  -8125.000000    100.648392
   12820           0      1994.987305   -100.000000  -8375.000000    102.842880
   12821           0      1994.987305   -100.000000  -8625.000000    105.119720
   12822           0      1994.987305   -100.000000  -8875.000000    107.423599
   12823           0      1994.987305   -100.000000  -9125.000000    109.688042
   12824           0      1994.987305   -100.000000  -9375.000000    111.843582
   12825           0      1994.987305   -100.000000  -9625.000000    113.808342
   12826           0      1994.987305   -100.000000  -9875.000000    115.503479
   12827           0      1994.987305   -100.000000  -10125.00000    116.838280
   12828           0      1994.987305   -100.000000  -10375.00000    117.741302
   12829           0      1994.987305   -100.000000  -10625.00000    118.128098
   12830           0      1994.987305   -100.000000  -10875.00000    117.982910
   12831           0      1994.987305   -100.000000  -11125.00000    117.260513
   12832           0      1994.987305   -100.000000  -11375.00000    116.114738
   12833           0      1994.987305   -100.000000  -11625.00000    114.582932
   12834           0      1994.987305   -100.000000  -11875.00000    113.209167
   12835           0      1994.987305   -100.000000  -12125.00000    112.050774
   12836           0      1994.987305   -100.000000  -12374.99902    112.214294
   12837           0      1994.987305   -100.000000  -12625.00000    113.216652
   12838           0      1994.987305   -100.000000  -12875.00000    116.503517
   12839           0      1994.987305   -100.000000  -13125.00000    117.806465
   12840           0      1994.987305   -100.000000  -13375.00000    115.697456
   12841           0      1865.601318   -200.000000  -26125.00000     24.263023
   12842           0      1865.601318   -200.000000  -26375.00000     31.571375
   12843           0      1865.601318   -200.000000  -26625.00000     47.680721
   12844           0      1865.601318   -200.000000  -26875.00000     53.932709
   12845           0      1865.601318   -200.000000  -27125.00000     51.489746
   12846           0      1865.601318   -200.000000  -27375.00000     43.511894
   12847           0      1865.601318   -200.000000  -27625.00000     31.652081
   12848           0      1865.601318   -200.000000  -27875.00000     18.302258
   12849           0      1865.601318   -200.000000  -28125.00000      9.744820
   12850           0      1865.601318   -200.000000  -28375.00000     18.786209
   12851           0      1865.601318   -200.000000  -28625.00000     32.083755
   12852           0      1865.601318   -200.000000  -28875.00000     43.388996
   12853           0      1865.601318   -200.000000  -29125.00000     51.026333
   12854           0      1865.601318   -200.000000  -29375.00000     51.761677
   12855           0      1865.601318   -200.000000  -29625.00000     44.630497
   12856           0      1865.601318   -200.000000  -29875.00000     23.543871
   12857           0      1616.854492   -200.000000  -26125.00000     62.515793
   12858           0      1616.854492   -200.000000  -26375.00000     40.898640
   12859           0      1616.854492   -200.000000  -26625.00000     46.782272
   12860           0      1616.854492   -200.000000  -26875.00000     51.735916
   12861           0      1616.854492   -200.000000  -27125.00000     51.315971
   12862           0      1616.854492   -200.000000  -27375.00000     46.256172
   12863           0      1616.854492   -200.000000  -27625.00000     38.837429
   12864           0      1616.854492   -200.000000  -27875.00000     31.764048
   12865           0      1616.854492   -200.000000  -28125.00000     28.770935
   12866           0      1616.854492   -200.000000  -28375.00000     31.922743
   12867           0      1616.854492   -200.000000  -28625.00000     38.863449
   12868           0      1616.854492   -200.000000  -28875.00000     45.912106
   12869           0      1616.854492   -200.000000  -29125.00000     50.136078
   12870           0      1616.854492   -200.000000  -29375.00000     49.711018
   12871           0      1616.854492   -200.000000  -29625.00000     43.642506
   12872           0      1616.854492   -200.000000  -29875.00000     42.686562
   12873           0      1368.107666   -200.000000  -26125.00000     95.715988
   12874           0      1368.107666   -200.000000  -26375.00000     56.084507
   12875           0      1368.107666   -200.000000  -26625.00000     44.980152
   12876           0      1368.107666   -200.000000  -26875.00000     46.763489
   12877           0      1368.107666   -200.000000  -27125.00000     48.735424
   12878           0      1368.107666   -200.000000  -27375.00000     48.261471
   12879           0      1368.107666   -200.000000  -27625.00000     46.118675
   12880           0      1368.107666   -200.000000  -27875.00000     43.870892
   12881           0      1368.107666   -200.000000  -28125.00000     42.894520
   12882           0      1368.107666   -200.000000  -28375.00000     43.721958
   12883           0      1368.107666   -200.000000  -28625.00000     45.652874
   12884           0      1368.107666   -200.000000  -28875.00000     47.247967
   12885           0      1368.107666   -200.000000  -29125.00000     46.875160
   12886           0      1368.107666   -200.000000  -29375.00000     44.261333
   12887           0      1368.107666   -200.000000  -29625.00000     43.804100
   12888           0      1368.107666   -200.000000  -29875.00000     63.000813
   12889           0      1119.360840   -200.000000  -26125.00000    123.602112
   12890           0      1119.360840   -200.000000  -26375.00000     71.717667
   12891           0      1119.360840   -200.000000  -26625.00000     44.782364
   12892           0      1119.360840   -200.000000  -26875.00000     39.758865
   12893           0      1119.360840   -200.000000  -27125.00000     44.097610
   12894           0      1119.360840   -200.000000  -27375.00000     48.720325
   12895           0      1119.360840   -200.000000  -27625.00000     51.643490
   12896           0      1119.360840   -200.000000  -27875.00000     53.046471
   12897           0      1119.360840   -200.000000  -28125.00000     53.348732
   12898           0      1119.360840   -200.000000  -28375.00000     52.674992
   12899           0      1119.360840   -200.000000  -28625.00000     50.778271
   12900           0      1119.360840   -200.000000  -28875.00000     47.121834
   12901           0      1119.360840   -200.000000  -29125.00000     41.656414
   12902           0      1119.360840   -200.000000  -29375.00000     37.310268
   12903           0      1119.360840   -200.000000  -29625.00000     46.292225
   12904           0      1119.360840   -200.000000  -29875.00000     80.113319
   12905           0       870.613953   -200.000000  -26125.00000    145.861786
   12906           0       870.613953   -200.000000  -26375.00000     85.499420
   12907           0       870.613953   -200.000000  -26625.00000     46.396461
   12908           0       870.613953   -200.000000  -26875.00000     32.033188
   12909           0       870.613953   -200.000000  -27125.00000     38.315952
   12910           0       870.613953   -200.000000  -27375.00000     48.161987
   12911           0       870.613953   -200.000000  -27625.00000     55.553165
   12912           0       870.613953   -200.000000  -27875.00000     59.798027
   12913           0       870.613953   -200.000000  -28125.00000     61.023117
   12914           0       870.613953   -200.000000  -28375.00000     59.282902
   12915           0       870.613953   -200.000000  -28625.00000     54.411476
   12916           0       870.613953   -200.000000  -28875.00000     46.219223
   12917           0       870.613953   -200.000000  -29125.00000     35.546001
   12918           0       870.613953   -200.000000  -29375.00000     30.535393
   12919           0       870.613953   -200.000000  -29625.00000     50.001053
   12920           0       870.613953   -200.000000  -29875.00000     93.532310
   12921           0       621.867126   -200.000000  -26125.00000    162.461517
   12922           0       621.867126   -200.000000  -26375.00000     96.340393
   12923           0       621.867126   -200.000000  -26625.00000     48.890236
   12924           0       621.867126   -200.000000  -26875.00000     24.528152
   12925           0       621.867126   -200.000000  -27125.00000     32.416023
   12926           0       621.867126   -200.000000  -27375.00000     47.235378
   12927           0       621.867126   -200.000000  -27625.00000     58.225292
   12928           0       621.867126   -200.000000  -27875.00000     64.584023
   12929           0       621.867126   -200.000000  -28125.00000     66.476532
   12930           0       621.867126   -200.000000  -28375.00000     63.975292
   12931           0       621.867126   -200.000000  -28625.00000     56.933872
   12932           0       621.867126   -200.000000  -28875.00000     45.135345
   12933           0       621.867126   -200.000000  -29125.00000     29.668650
   12934           0       621.867126   -200.000000  -29375.00000     24.718800
   12935           0       621.867126   -200.000000  -29625.00000     53.643669
   12936           0       621.867126   -200.000000  -29875.00000    103.317551
   12937           0       373.120270   -200.000000  -26125.00000    173.440460
   12938           0       373.120270   -200.000000  -26375.00000    103.728348
   12939           0       373.120270   -200.000000  -26625.00000     51.162819
   12940           0       373.120270   -200.000000  -26875.00000     18.013439
   12941           0       373.120270   -200.000000  -27125.00000     27.431252
   12942           0       373.120270   -200.000000  -27375.00000     46.405624
   12943           0       373.120270   -200.000000  -27625.00000     59.915268
   12944           0       373.120270   -200.000000  -27875.00000     67.674492
   12945           0       373.120270   -200.000000  -28125.00000     70.002136
   12946           0       373.120270   -200.000000  -28375.00000     67.012039
   12947           0       373.120270   -200.000000  -28625.00000     58.546474
   12948           0       373.120270   -200.000000  -28875.00000     44.283504
   12949           0       373.120270   -200.000000  -29125.00000     24.887579
   12950           0       373.120270   -200.000000  -29375.00000     20.395220
   12951           0       373.120270   -200.000000  -29625.00000     56.411270
   12952           0       373.120270   -200.000000  -29875.00000    109.686516
   12953           0       124.373421   -200.000000  -26125.00000    178.860413
   12954           0       124.373421   -200.000000  -26375.00000    107.419914
   12955           0       124.373421   -200.000000  -26625.00000     52.429977
   12956           0       124.373421   -200.000000  -26875.00000     13.703877
   12957           0       124.373421   -200.000000  -27125.00000     24.457649
   12958           0       124.373421   -200.000000  -27375.00000     45.936859
   12959           0       124.373421   -200.000000  -27625.00000     60.740265
   12960           0       124.373421   -200.000000  -27875.00000     69.196838
   12961           0       124.373421   -200.000000  -28125.00000     71.738487
   12962           0       124.373421   -200.000000  -28375.00000     68.507378
   12963           0       124.373421   -200.000000  -28625.00000     59.338638
   12964           0       124.373421   -200.000000  -28875.00000     43.828560
   12965           0       124.373421   -200.000000  -29125.00000     22.111723
   12966           0       124.373421   -200.000000  -29375.00000     18.043398
   12967           0       124.373421   -200.000000  -29625.00000     57.882507
   12968           0       124.373421   -200.000000  -29875.00000    112.819290
   12969           0      -124.373421   -200.000000  -26125.00000    178.763596
   12970           0      -124.373421   -200.000000  -26375.00000    107.322525
   12971           0      -124.373421   -200.000000  -26625.00000     52.324070
   12972           0      -124.373421   -200.000000  -26875.00000     13.523278
   12973           0      -124.373421   -200.000000  -27125.00000     24.424047
   12974           0      -124.373421   -200.000000  -27375.00000     45.933765
   12975           0      -124.373421   -200.000000  -27625.00000     60.740532
   12976           0      -124.373421   -200.000000  -27875.00000     69.195938
   12977           0      -124.373421   -200.000000  -28125.00000     71.735657
   12978           0      -124.373421   -200.000000  -28375.00000     68.502602
   12979           0      -124.373421   -200.000000  -28625.00000     59.332008
   12980           0      -124.373421   -200.000000  -28875.00000     43.819824
   12981           0      -124.373421   -200.000000  -29125.00000     22.098515
   12982           0      -124.373421   -200.000000  -29375.00000     18.036617
   12983           0      -124.373421   -200.000000  -29625.00000     57.884377
   12984           0      -124.373421   -200.000000  -29875.00000    112.822433
   12985           0      -373.120270   -200.000000  -26125.00000    173.160034
   12986           0      -373.120270   -200.000000  -26375.00000    103.448730
   12987           0      -373.120270   -200.000000  -26625.00000     50.869781
   12988           0      -373.120270   -200.000000  -26875.00000     17.657625
   12989           0      -373.120270   -200.000000  -27125.00000     27.359102
   12990           0      -373.120270   -200.000000  -27375.00000     46.399216
   12991           0      -373.120270   -200.000000  -27625.00000     59.914913
   12992           0      -373.120270   -200.000000  -27875.00000     67.670006
   12993           0      -373.120270   -200.000000  -28125.00000     69.991966
   12994           0      -373.120270   -200.000000  -28375.00000     66.996574
   12995           0      -373.120270   -200.000000  -28625.00000     58.526157
   12996           0      -373.120270   -200.000000  -28875.00000     44.257793
   12997           0      -373.120270   -200.000000  -29125.00000     24.852831
   12998           0      -373.120270   -200.000000  -29375.00000     20.376875
   12999           0      -373.120270   -200.000000  -29625.00000     56.416374
   13000           0      -373.120270   -200.000000  -29875.00000    109.695663
   13001           0      -621.867126   -200.000000  -26125.00000    162.028259
   13002           0      -621.867126   -200.000000  -26375.00000     95.919937
   13003           0      -621.867126   -200.000000  -26625.00000     48.490837
   13004           0      -621.867126   -200.000000  -26875.00000     24.231184
   13005           0      -621.867126   -200.000000  -27125.00000     32.363220
   13006           0      -621.867126   -200.000000  -27375.00000     47.233860
   13007           0      -621.867126   -200.000000  -27625.00000     58.222355
   13008           0      -621.867126   -200.000000  -27875.00000     64.571533
   13009           0      -621.867126   -200.000000  -28125.00000     66.455055
   13010           0      -621.867126   -200.000000  -28375.00000     63.946617
   13011           0      -621.867126   -200.000000  -28625.00000     56.899212
   13012           0      -621.867126   -200.000000  -28875.00000     45.094879
   13013           0      -621.867126   -200.000000  -29125.00000     29.621902
   13014           0      -621.867126   -200.000000  -29375.00000     24.692909
   13015           0      -621.867126   -200.000000  -29625.00000     53.650486
   13016           0      -621.867126   -200.000000  -29875.00000    103.331612
   13017           0      -870.613953   -200.000000  -26125.00000    145.333130
   13018           0      -870.613953   -200.000000  -26375.00000     85.018654
   13019           0      -870.613953   -200.000000  -26625.00000     46.044514
   13020           0      -870.613953   -200.000000  -26875.00000     31.919630
   13021           0      -870.613953   -200.000000  -27125.00000     38.332005
   13022           0      -870.613953   -200.000000  -27375.00000     48.178116
   13023           0      -870.613953   -200.000000  -27625.00000     55.547085
   13024           0      -870.613953   -200.000000  -27875.00000     59.773445
   13025           0      -870.613953   -200.000000  -28125.00000     60.986546
   13026           0      -870.613953   -200.000000  -28375.00000     59.239307
   13027           0      -870.613953   -200.000000  -28625.00000     54.363766
   13028           0      -870.613953   -200.000000  -28875.00000     46.168926
   13029           0      -870.613953   -200.000000  -29125.00000     35.496300
   13030           0      -870.613953   -200.000000  -29375.00000     30.505934
   13031           0      -870.613953   -200.000000  -29625.00000     50.006870
   13032           0      -870.613953   -200.000000  -29875.00000     93.549484
   13033           0     -1119.360840   -200.000000  -26125.00000    123.069679
   13034           0     -1119.360840   -200.000000  -26375.00000     71.328552
   13035           0     -1119.360840   -200.000000  -26625.00000     44.689404
   13036           0     -1119.360840   -200.000000  -26875.00000     39.878941
   13037           0     -1119.360840   -200.000000  -27125.00000     44.205673
   13038           0     -1119.360840   -200.000000  -27375.00000     48.765152
   13039           0     -1119.360840   -200.000000  -27625.00000     51.636726
   13040           0     -1119.360840   -200.000000  -27875.00000     53.008873
   13041           0     -1119.360840   -200.000000  -28125.00000     53.296494
   13042           0     -1119.360840   -200.000000  -28375.00000     52.618382
   13043           0     -1119.360840   -200.000000  -28625.00000     50.723011
   13044           0     -1119.360840   -200.000000  -28875.00000     47.070442
   13045           0     -1119.360840   -200.000000  -29125.00000     41.611465
   13046           0     -1119.360840   -200.000000  -29375.00000     37.281441
   13047           0     -1119.360840   -200.000000  -29625.00000     46.293549
   13048           0     -1119.360840   -200.000000  -29875.00000     80.130608
   13049           0     -1368.107666   -200.000000  -26125.00000     95.342949
   13050           0     -1368.107666   -200.000000  -26375.00000     56.040272
   13051           0     -1368.107666   -200.000000  -26625.00000     45.326458
   13052           0     -1368.107666   -200.000000  -26875.00000     47.074841
   13053           0     -1368.107666   -200.000000  -27125.00000     48.918034
   13054           0     -1368.107666   -200.000000  -27375.00000     48.331371
   13055           0     -1368.107666   -200.000000  -27625.00000     46.113476
   13056           0     -1368.107666   -200.000000  -27875.00000     43.822697
   13057           0     -1368.107666   -200.000000  -28125.00000     42.830021
   13058           0     -1368.107666   -200.000000  -28375.00000     43.659966
   13059           0     -1368.107666   -200.000000  -28625.00000     45.601055
   13060           0     -1368.107666   -200.000000  -28875.00000     47.207447
   13061           0     -1368.107666   -200.000000  -29125.00000     46.843273
   13062           0     -1368.107666   -200.000000  -29375.00000     44.238037
   13063           0     -1368.107666   -200.000000  -29625.00000     43.798073
   13064           0     -1368.107666   -200.000000  -29875.00000     63.014206
   13065           0     -1616.854492   -200.000000  -26125.00000     62.529392
   13066           0     -1616.854492   -200.000000  -26375.00000     41.680153
   13067           0     -1616.854492   -200.000000  -26625.00000     47.380329
   13068           0     -1616.854492   -200.000000  -26875.00000     52.097420
   13069           0     -1616.854492   -200.000000  -27125.00000     51.491386
   13070           0     -1616.854492   -200.000000  -27375.00000     46.320206
   13071           0     -1616.854492   -200.000000  -27625.00000     38.824852
   13072           0     -1616.854492   -200.000000  -27875.00000     31.705900
   13073           0     -1616.854492   -200.000000  -28125.00000     28.700499
   13074           0     -1616.854492   -200.000000  -28375.00000     31.869991
   13075           0     -1616.854492   -200.000000  -28625.00000     38.833897
   13076           0     -1616.854492   -200.000000  -28875.00000     45.895844
   13077           0     -1616.854492   -200.000000  -29125.00000     50.127167
   13078           0     -1616.854492   -200.000000  -29375.00000     49.700108
   13079           0     -1616.854492   -200.000000  -29625.00000     43.633957
   13080           0     -1616.854492   -200.000000  -29875.00000     42.687935
   13081           0     -1865.601318   -200.000000  -26125.00000     25.602657
   13082           0     -1865.601318   -200.000000  -26375.00000     32.387913
   13083           0     -1865.601318   -200.000000  -26625.00000     48.033611
   13084           0     -1865.601318   -200.000000  -26875.00000     54.073360
   13085           0     -1865.601318   -200.000000  -27125.00000     51.538261
   13086           0     -1865.601318   -200.000000  -27375.00000     43.494984
   13087           0     -1865.601318   -200.000000  -27625.00000     31.602089
   13088           0     -1865.601318   -200.000000  -27875.00000     18.219839
   13089           0     -1865.601318   -200.000000  -28125.00000      9.658443
   13090           0     -1865.601318   -200.000000  -28375.00000     18.784483
   13091           0     -1865.601318   -200.000000  -28625.00000     32.102245
   13092           0     -1865.601318   -200.000000  -28875.00000     43.413078
   13093           0     -1865.601318   -200.000000  -29125.00000     51.047615
   13094           0     -1865.601318   -200.000000  -29375.00000     51.780090
   13095           0     -1865.601318   -200.000000  -29625.00000     44.633232
   13096           0     -1865.601318   -200.000000  -29875.00000     23.526600
   13097           0      1865.601318   -200.000000  -13625.00000     72.206795
   13098           0      1865.601318   -200.000000  -13875.00000     97.457664
   13099           0      1865.601318   -200.000000  -14125.00000    121.522804
   13100           0      1865.601318   -200.000000  -14375.00000    134.934509
   13101           0      1865.601318   -200.000000  -14625.00000    140.368958
   13102           0      1865.601318   -200.000000  -14875.00000    139.865387
   13103           0      1865.601318   -200.000000  -15125.00000    135.388901
   13104           0      1865.601318   -200.000000  -15375.00000    128.326080
   13105           0      1865.601318   -200.000000  -15625.00000    119.771973
   13106           0      1865.601318   -200.000000  -15875.00000    110.488914
   13107           0      1865.601318   -200.000000  -16125.00000    101.046112
   13108           0      1865.601318   -200.000000  -16375.00000     91.823929
   13109           0      1865.601318   -200.000000  -16625.00000     83.087334
   13110           0      1865.601318   -200.000000  -16875.00000     74.996933
   13111           0      1865.601318   -200.000000  -17125.00000     67.648529
   13112           0      1865.601318   -200.000000  -17375.00000     61.081909
   13113           0      1865.601318   -200.000000  -17625.00000     55.302341
   13114           0      1865.601318   -200.000000  -17875.00000     50.286392
   13115           0      1865.601318   -200.000000  -18125.00000     45.993820
   13116           0      1865.601318   -200.000000  -18375.00000     42.371834
   13117           0      1865.601318   -200.000000  -18625.00000     39.362705
   13118           0      1865.601318   -200.000000  -18875.00000     36.908062
   13119           0      1865.601318   -200.000000  -19125.00000     34.955025
   13120           0      1865.601318   -200.000000  -19375.00000     33.460892
   13121           0      1865.601318   -200.000000  -19625.00000     32.398010
   13122           0      1865.601318   -200.000000  -19875.00000     31.757421
   13123           0      1865.601318   -200.000000  -20125.00000     31.551052
   13124           0      1865.601318   -200.000000  -20375.00000     31.811827
   13125           0      1865.601318   -200.000000  -20625.00000     32.590885
   13126           0      1865.601318   -200.000000  -20875.00000     33.952461
   13127           0      1865.601318   -200.000000  -21125.00000     35.966301
   13128           0      1865.601318   -200.000000  -21375.00000     38.700382
   13129           0      1865.601318   -200.000000  -21625.00000     42.214333
   13130           0      1865.601318   -200.000000  -21875.00000     46.555439
   13131           0      1865.601318   -200.000000  -22125.00000     51.756027
   13132           0      1865.601318   -200.000000  -22375.00000     57.830044
   13133           0      1865.601318   -200.000000  -22625.00000     64.770714
   13134           0      1865.601318   -200.000000  -22875.00000     72.538811
   13135           0      1865.601318   -200.000000  -23125.00000     81.060318
   13136           0      1865.601318   -200.000000  -23375.00000     90.193275
   13137           0      1865.601318   -200.000000  -23625.00000     99.737747
   13138           0      1865.601318   -200.000000  -23875.00000    109.348488
   13139           0      1865.601318   -200.000000  -24125.00000    118.601463
   13140           0      1865.601318   -200.000000  -24375.00000    126.755722
   13141           0      1865.601318   -200.000000  -24625.00000    133.020676
   13142           0      1865.601318   -200.000000  -24875.00000    135.871155
   13143           0      1865.601318   -200.000000  -25125.00000    133.957642
   13144           0      1865.601318   -200.000000  -25375.00000    124.141556
   13145           0      1865.601318   -200.000000  -25625.00000    104.030205
   13146           0      1865.601318   -200.000000  -25875.00000     67.313950
   13147           0      1616.854492   -200.000000  -13625.00000    105.936554
   13148           0      1616.854492   -200.000000  -13875.00000    108.045914
   13149           0      1616.854492   -200.000000  -14125.00000    122.138428
   13150           0      1616.854492   -200.000000  -14375.00000    132.997330
   13151           0      1616.854492   -200.000000  -14625.00000    138.413910
   13152           0      1616.854492   -200.000000  -14875.00000    139.187714
   13153           0      1616.854492   -200.000000  -15125.00097    136.657822
   13154           0      1616.854492   -200.000000  -15375.00097    132.042084
   13155           0      1616.854492   -200.000000  -15625.00097    126.316277
   13156           0      1616.854492   -200.000000  -15875.00097    120.218552
   13157           0      1616.854492   -200.000000  -16125.00097    114.267860
   13158           0      1616.854492   -200.000000  -16375.00000    108.810448
   13159           0      1616.854492   -200.000000  -16625.00000    104.042435
   13160           0      1616.854492   -200.000000  -16875.00000    100.049011
   13161           0      1616.854492   -200.000000  -17125.00000     96.827156
   13162           0      1616.854492   -200.000000  -17375.00000     94.317070
   13163           0      1616.854492   -200.000000  -17625.00000     92.423088
   13164           0      1616.854492   -200.000000  -17875.00000     91.035538
   13165           0      1616.854492   -200.000000  -18125.00000     90.043884
   13166           0      1616.854492   -200.000000  -18375.00000     89.347076
   13167           0      1616.854492   -200.000000  -18625.00000     88.858040
   13168           0      1616.854492   -200.000000  -18875.00000     88.505714
   13169           0      1616.854492   -200.000000  -19125.00000     88.234810
   13170           0      1616.854492   -200.000000  -19375.00000     88.004601
   13171           0      1616.854492   -200.000000  -19625.00000     87.787613
   13172           0      1616.854492   -200.000000  -19875.00000     87.568314
   13173           0      1616.854492   -200.000000  -20125.00000     87.342628
   13174           0      1616.854492   -200.000000  -20375.00000     87.117722
   13175           0      1616.854492   -200.000000  -20625.00000     86.912827
   13176           0      1616.854492   -200.000000  -20875.00000     86.760498
   13177           0      1616.854492   -200.000000  -21125.00000     86.708488
   13178           0      1616.854492   -200.000000  -21375.00000     86.821465
   13179           0      1616.854492   -200.000000  -21625.00000     87.182671
   13180           0      1616.854492   -200.000000  -21875.00000     87.893280
   13181           0      1616.854492   -200.000000  -22125.00000     89.069794
   13182           0      1616.854492   -200.000000  -22375.00000     90.836014
   13183           0      1616.854492   -200.000000  -22625.00000     93.310181
   13184           0      1616.854492   -200.000000  -22875.00000     96.585930
   13185           0      1616.854492   -200.000000  -23125.00000    100.706490
   13186           0      1616.854492   -200.000000  -23375.00000    105.641327
   13187           0      1616.854492   -200.000000  -23625.00000    111.246475
   13188           0      1616.854492   -200.000000  -23875.00000    117.255775
   13189           0      1616.854492   -200.000000  -24125.00000    123.203323
   13190           0      1616.854492   -200.000000  -24375.00000    128.468811
   13191           0      1616.854492   -200.000000  -24625.00000    132.072906
   13192           0      1616.854492   -200.000000  -24875.00000    132.911285
   13193           0      1616.854492   -200.000000  -25125.00000    129.215576
   13194           0      1616.854492   -200.000000  -25375.00000    119.511864
   13195           0      1616.854492   -200.000000  -25625.00000    102.109070
   13196           0      1616.854492   -200.000000  -25875.00000     85.165024
   13197           0      1368.107666   -200.000000  -13625.00000    141.081802
   13198           0      1368.107666   -200.000000  -13875.00000    117.573013
   13199           0      1368.107666   -200.000000  -14125.00000    118.435005
   13200           0      1368.107666   -200.000000  -14375.00000    125.395508
   13201           0      1368.107666   -200.000000  -14625.00000    131.087067
   13202           0      1368.107666   -200.000000  -14875.00000    134.265656
   13203           0      1368.107666   -200.000000  -15125.00097    135.222717
   13204           0      1368.107666   -200.000000  -15375.00097    134.756485
   13205           0      1368.107666   -200.000000  -15625.00097    133.569977
   13206           0      1368.107666   -200.000000  -15875.00097    132.210876
   13207           0      1368.107666   -200.000000  -16125.00097    131.030090
   13208           0      1368.107666   -200.000000  -16375.00000    130.215225
   13209           0      1368.107666   -200.000000  -16625.00000    129.829178
   13210           0      1368.107666   -200.000000  -16875.00000    129.849808
   13211           0      1368.107666   -200.000000  -17125.00000    130.208176
   13212           0      1368.107666   -200.000000  -17375.00000    130.814056
   13213           0      1368.107666   -200.000000  -17625.00000    131.575958
   13214           0      1368.107666   -200.000000  -17875.00000    132.410522
   13215           0      1368.107666   -200.000000  -18125.00000    133.248062
   13216           0      1368.107666   -200.000000  -18375.00000    134.033081
   13217           0      1368.107666   -200.000000  -18625.00000    134.723434
   13218           0      1368.107666   -200.000000  -18875.00000    135.288208
   13219           0      1368.107666   -200.000000  -19125.00000    135.705429
   13220           0      1368.107666   -200.000000  -19375.00000    135.960159
   13221           0      1368.107666   -200.000000  -19625.00000    136.042709
   13222           0      1368.107666   -200.000000  -19875.00000    135.947525
   13223           0      1368.107666   -200.000000  -20125.00000    135.672455
   13224           0      1368.107666   -200.000000  -20375.00000    135.218719
   13225           0      1368.107666   -200.000000  -20625.00000    134.591309
   13226           0      1368.107666   -200.000000  -20875.00000    133.799911
   13227           0      1368.107666   -200.000000  -21125.00000    132.860306
   13228           0      1368.107666   -200.000000  -21375.00000    131.796631
   13229           0      1368.107666   -200.000000  -21625.00000    130.643372
   13230           0      1368.107666   -200.000000  -21875.00000    129.448257
   13231           0      1368.107666   -200.000000  -22125.00000    128.273834
   13232           0      1368.107666   -200.000000  -22375.00000    127.198570
   13233           0      1368.107666   -200.000000  -22625.00000    126.314117
   13234           0      1368.107666   -200.000000  -22875.00000    125.718590
   13235           0      1368.107666   -200.000000  -23125.00000    125.501747
   13236           0      1368.107666   -200.000000  -23375.00000    125.720375
   13237           0      1368.107666   -200.000000  -23625.00000    126.365471
   13238           0      1368.107666   -200.000000  -23875.00000    127.313332
   13239           0      1368.107666   -200.000000  -24125.00000    128.287750
   13240           0      1368.107666   -200.000000  -24375.00000    128.792953
   13241           0      1368.107666   -200.000000  -24625.00000    128.123260
   13242           0      1368.107666   -200.000000  -24875.00000    125.318100
   13243           0      1368.107666   -200.000000  -25125.00000    119.451630
   13244           0      1368.107666   -200.000000  -25375.00000    110.252403
   13245           0      1368.107666   -200.000000  -25625.00000    101.423653
   13246           0      1368.107666   -200.000000  -25875.00000    108.837387
   13247           0      1119.360840   -200.000000  -13625.00000    172.239548
   13248           0      1119.360840   -200.000000  -13875.00000    128.300354
   13249           0      1119.360840   -200.000000  -14125.00000    112.979424
   13250           0      1119.360840   -200.000000  -14375.00000    113.474136
   13251           0      1119.360840   -200.000000  -14625.00000    119.147575
   13252           0      1119.360840   -200.000000  -14875.00000    125.252083
   13253           0      1119.360840   -200.000000  -15125.00097    130.606003
   13254           0      1119.360840   -200.000000  -15375.00097    135.132095
   13255           0      1119.360840   -200.000000  -15625.00097    139.111969
   13256           0      1119.360840   -200.000000  -15875.00097    142.791656
   13257           0      1119.360840   -200.000000  -16125.00097    146.332916
   13258           0      1119.360840   -200.000000  -16375.00000    149.801407
   13259           0      1119.360840   -200.000000  -16625.00000    153.198639
   13260           0      1119.360840   -200.000000  -16875.00000    156.490250
   13261           0      1119.360840   -200.000000  -17125.00000    159.627655
   13262           0      1119.360840   -200.000000  -17375.00000    162.563065
   13263           0      1119.360840   -200.000000  -17625.00000    165.255936
   13264           0      1119.360840   -200.000000  -17875.00000    167.676193
   13265           0      1119.360840   -200.000000  -18125.00000    169.803772
   13266           0      1119.360840   -200.000000  -18375.00000    171.627197
   13267           0      1119.360840   -200.000000  -18625.00000    173.141357
   13268           0      1119.360840   -200.000000  -18875.00000    174.345428
   13269           0      1119.360840   -200.000000  -19125.00000    175.241013
   13270           0      1119.360840   -200.000000  -19375.00000    175.830536
   13271           0      1119.360840   -200.000000  -19625.00000    176.116150
   13272           0      1119.360840   -200.000000  -19875.00000    176.098755
   13273           0      1119.360840   -200.000000  -20125.00000    175.777817
   13274           0      1119.360840   -200.000000  -20375.00000    175.151031
   13275           0      1119.360840   -200.000000  -20625.00000    174.214737
   13276           0      1119.360840   -200.000000  -20875.00000    172.964417
   13277           0      1119.360840   -200.000000  -21125.00000    171.395569
   13278           0      1119.360840   -200.000000  -21375.00000    169.505188
   13279           0      1119.360840   -200.000000  -21625.00000    167.293442
   13280           0      1119.360840   -200.000000  -21875.00000    164.765518
   13281           0      1119.360840   -200.000000  -22125.00000    161.934158
   13282           0      1119.360840   -200.000000  -22375.00000    158.821274
   13283           0      1119.360840   -200.000000  -22625.00000    155.459259
   13284           0      1119.360840   -200.000000  -22875.00000    151.889969
   13285           0      1119.360840   -200.000000  -23125.00000    148.159683
   13286           0      1119.360840   -200.000000  -23375.00000    144.309021
   13287           0      1119.360840   -200.000000  -23625.00000    140.351151
   13288           0      1119.360840   -200.000000  -23875.00000    136.246506
   13289           0      1119.360840   -200.000000  -24125.00000    131.856613
   13290           0      1119.360840   -200.000000  -24375.00000    126.927139
   13291           0      1119.360840   -200.000000  -24625.00000    121.068398
   13292           0      1119.360840   -200.000000  -24875.00000    113.939743
   13293           0      1119.360840   -200.000000  -25125.00000    105.749046
   13294           0      1119.360840   -200.000000  -25375.00000     99.080711
   13295           0      1119.360840   -200.000000  -25625.00000    102.717430
   13296           0      1119.360840   -200.000000  -25875.00000    131.467239
   13297           0       870.613953   -200.000000  -13625.00000    197.621948
   13298           0       870.613953   -200.000000  -13875.00000    138.339584
   13299           0       870.613953   -200.000000  -14125.00000    107.346367
   13300           0       870.613953   -200.000000  -14375.00000     99.212936
   13301           0       870.613953   -200.000000  -14625.00000    103.953094
   13302           0       870.613953   -200.000000  -14875.00000    113.339241
   13303           0       870.613953   -200.000000  -15125.00097    123.537163
   13304           0       870.613953   -200.000000  -15375.00097    133.333664
   13305           0       870.613953   -200.000000  -15625.00097    142.424820
   13306           0       870.613953   -200.000000  -15875.00097    150.809494
   13307           0       870.613953   -200.000000  -16125.00097    158.530350
   13308           0       870.613953   -200.000000  -16375.00000    165.625565
   13309           0       870.613953   -200.000000  -16625.00000    172.115463
   13310           0       870.613953   -200.000000  -16875.00000    178.011032
   13311           0       870.613953   -200.000000  -17125.00000    183.320938
   13312           0       870.613953   -200.000000  -17375.00000    188.055893
   13313           0       870.613953   -200.000000  -17625.00000    192.230927
   13314           0       870.613953   -200.000000  -17875.00000    195.865021
   13315           0       870.613953   -200.000000  -18125.00000    198.980225
   13316           0       870.613953   -200.000000  -18375.00000    201.599960
   13317           0       870.613953   -200.000000  -18625.00000    203.747528
   13318           0       870.613953   -200.000000  -18875.00000    205.444580
   13319           0       870.613953   -200.000000  -19125.00000    206.710022
   13320           0       870.613953   -200.000000  -19375.00000    207.558929
   13321           0       870.613953   -200.000000  -19625.00000    208.001938
   13322           0       870.613953   -200.000000  -19875.00000    208.044769
   13323           0       870.613953   -200.000000  -20125.00000    207.687973
   13324           0       870.613953   -200.000000  -20375.00000    206.926941
   13325           0       870.613953   -200.000000  -20625.00000    205.751724
   13326           0       870.613953   -200.000000  -20875.00000    204.147751
   13327           0       870.613953   -200.000000  -21125.00000    202.096039
   13328           0       870.613953   -200.000000  -21375.00000    199.574127
   13329           0       870.613953   -200.000000  -21625.00000    196.556931
   13330           0       870.613953   -200.000000  -21875.00000    193.018082
   13331           0       870.613953   -200.000000  -22125.00000    188.931259
   13332           0       870.613953   -200.000000  -22375.00000    184.271606
   13333           0       870.613953   -200.000000  -22625.00000    179.017090
   13334           0       870.613953   -200.000000  -22875.00000    173.148438
   13335           0       870.613953   -200.000000  -23125.00000    166.648315
   13336           0       870.613953   -200.000000  -23375.00000    159.496078
   13337           0       870.613953   -200.000000  -23625.00000    151.661346
   13338           0       870.613953   -200.000000  -23875.00000    143.088821
   13339           0       870.613953   -200.000000  -24125.00000    133.692596
   13340           0       870.613953   -200.000000  -24375.00000    123.360245
   13341           0       870.613953   -200.000000  -24625.00000    112.061440
   13342           0       870.613953   -200.000000  -24875.00000    100.223709
   13343           0       870.613953   -200.000000  -25125.00000     89.946800
   13344           0       870.613953   -200.000000  -25375.00000     87.785759
   13345           0       870.613953   -200.000000  -25625.00000    105.379173
   13346           0       870.613953   -200.000000  -25875.00000    150.609299
   13347           0       621.867126   -200.000000  -13625.00000    216.405121
   13348           0       621.867126   -200.000000  -13875.00000    146.257202
   13349           0       621.867126   -200.000000  -14125.00000    102.031715
   13350           0       621.867126   -200.000000  -14375.00000     84.173843
   13351           0       621.867126   -200.000000  -14625.00000     87.354164
   13352           0       621.867126   -200.000000  -14875.00000    100.242676
   13353           0       621.867126   -200.000000  -15125.00097    115.445221
   13354           0       621.867126   -200.000000  -15375.00097    130.234436
   13355           0       621.867126   -200.000000  -15625.00097    143.866348
   13356           0       621.867126   -200.000000  -15875.00097    156.208008
   13357           0       621.867126   -200.000000  -16125.00097    167.308487
   13358           0       621.867126   -200.000000  -16375.00000    177.250946
   13359           0       621.867126   -200.000000  -16625.00000    186.119644
   13360           0       621.867126   -200.000000  -16875.00000    193.991074
   13361           0       621.867126   -200.000000  -17125.00000    200.935349
   13362           0       621.867126   -200.000000  -17375.00000    207.018143
   13363           0       621.867126   -200.000000  -17625.00000    212.301239
   13364           0       621.867126   -200.000000  -17875.00000    216.843094
   13365           0       621.867126   -200.000000  -18125.00000    220.698044
   13366           0       621.867126   -200.000000  -18375.00000    223.915802
   13367           0       621.867126   -200.000000  -18625.00000    226.540649
   13368           0       621.867126   -200.000000  -18875.00000    228.610718
   13369           0       621.867126   -200.000000  -19125.00000    230.157440
   13370           0       621.867126   -200.000000  -19375.00000    231.205078
   13371           0       621.867126   -200.000000  -19625.00000    231.770523
   13372           0       621.867126   -200.000000  -19875.00000    231.862930
   13373           0       621.867126   -200.000000  -20125.00000    231.483704
   13374           0       621.867126   -200.000000  -20375.00000    230.626434
   13375           0       621.867126   -200.000000  -20625.00000    229.276947
   13376           0       621.867126   -200.000000  -20875.00000    227.413406
   13377           0       621.867126   -200.000000  -21125.00000    225.006470
   13378           0       621.867126   -200.000000  -21375.00000    222.019699
   13379           0       621.867126   -200.000000  -21625.00000    218.409912
   13380           0       621.867126   -200.000000  -21875.00000    214.127670
   13381           0       621.867126   -200.000000  -22125.00000    209.117950
   13382           0       621.867126   -200.000000  -22375.00000    203.320663
   13383           0       621.867126   -200.000000  -22625.00000    196.670837
   13384           0       621.867126   -200.000000  -22875.00000    189.098633
   13385           0       621.867126   -200.000000  -23125.00000    180.527649
   13386           0       621.867126   -200.000000  -23375.00000    170.872711
   13387           0       621.867126   -200.000000  -23625.00000    160.034225
   13388           0       621.867126   -200.000000  -23875.00000    147.896561
   13389           0       621.867126   -200.000000  -24125.00000    134.331207
   13390           0       621.867126   -200.000000  -24375.00000    119.252182
   13391           0       621.867126   -200.000000  -24625.00000    102.819511
   13392           0       621.867126   -200.000000  -24875.00000     86.199966
   13393           0       621.867126   -200.000000  -25125.00000     73.977531
   13394           0       621.867126   -200.000000  -25375.00000     77.790390
   13395           0       621.867126   -200.000000  -25625.00000    108.484886
   13396           0       621.867126   -200.000000  -25875.00000    165.344940
   13397           0       373.120270   -200.000000  -13625.00000    228.134583
   13398           0       373.120270   -200.000000  -13875.00000    150.967941
   13399           0       373.120270   -200.000000  -14125.00000     97.138451
   13400           0       373.120270   -200.000000  -14375.00000     70.075050
   13401           0       373.120270   -200.000000  -14625.00000     71.563576
   13402           0       373.120270   -200.000000  -14875.00000     88.258469
   13403           0       373.120270   -200.000000  -15125.00097    108.066925
   13404           0       373.120270   -200.000000  -15375.00097    126.978828
   13405           0       373.120270   -200.000000  -15625.00097    144.084335
   13406           0       373.120270   -200.000000  -15875.00097    159.316620
   13407           0       373.120270   -200.000000  -16125.00097    172.807816
   13408           0       373.120270   -200.000000  -16375.00000    184.723984
   13409           0       373.120270   -200.000000  -16625.00000    195.219452
   13410           0       373.120270   -200.000000  -16875.00000    204.430878
   13411           0       373.120270   -200.000000  -17125.00000    212.478409
   13412           0       373.120270   -200.000000  -17375.00000    219.468964
   13413           0       373.120270   -200.000000  -17625.00000    225.498260
   13414           0       373.120270   -200.000000  -17875.00000    230.652023
   13415           0       373.120270   -200.000000  -18125.00000    235.006958
   13416           0       373.120270   -200.000000  -18375.00000    238.630341
   13417           0       373.120270   -200.000000  -18625.00000    241.580536
   13418           0       373.120270   -200.000000  -18875.00000    243.906647
   13419           0       373.120270   -200.000000  -19125.00000    245.648392
   13420           0       373.120270   -200.000000  -19375.00000    246.836166
   13421           0       373.120270   -200.000000  -19625.00000    247.490936
   13422           0       373.120270   -200.000000  -19875.00000    247.624176
   13423           0       373.120270   -200.000000  -20125.00000    247.237930
   13424           0       373.120270   -200.000000  -20375.00000    246.324692
   13425           0       373.120270   -200.000000  -20625.00000    244.867477
   13426           0       373.120270   -200.000000  -20875.00000    242.839752
   13427           0       373.120270   -200.000000  -21125.00000    240.205521
   13428           0       373.120270   -200.000000  -21375.00000    236.919235
   13429           0       373.120270   -200.000000  -21625.00000    232.925873
   13430           0       373.120270   -200.000000  -21875.00000    228.160995
   13431           0       373.120270   -200.000000  -22125.00000    222.550659
   13432           0       373.120270   -200.000000  -22375.00000    216.011200
   13433           0       373.120270   -200.000000  -22625.00000    208.448761
   13434           0       373.120270   -200.000000  -22875.00000    199.757980
   13435           0       373.120270   -200.000000  -23125.00000    189.820053
   13436           0       373.120270   -200.000000  -23375.00000    178.498520
   13437           0       373.120270   -200.000000  -23625.00000    165.635239
   13438           0       373.120270   -200.000000  -23875.00000    151.045761
   13439           0       373.120270   -200.000000  -24125.00000    134.529800
   13440           0       373.120270   -200.000000  -24375.00000    115.930573
   13441           0       373.120270   -200.000000  -24625.00000     95.402374
   13442           0       373.120270   -200.000000  -24875.00000     74.503113
   13443           0       373.120270   -200.000000  -25125.00000     60.382957
   13444           0       373.120270   -200.000000  -25375.00000     70.496895
   13445           0       373.120270   -200.000000  -25625.00000    111.201065
   13446           0       373.120270   -200.000000  -25875.00000    175.317093
   13447           0       124.373421   -200.000000  -13625.00000    232.577591
   13448           0       124.373421   -200.000000  -13875.00000    151.818985
   13449           0       124.373421   -200.000000  -14125.00000     92.627960
   13450           0       124.373421   -200.000000  -14375.00000     59.200272
   13451           0       124.373421   -200.000000  -14625.00000     59.893169
   13452           0       124.373421   -200.000000  -14875.00000     80.095909
   13453           0       124.373421   -200.000000  -15125.00097    103.173203
   13454           0       124.373421   -200.000000  -15375.00097    124.617279
   13455           0       124.373421   -200.000000  -15625.00097    143.700729
   13456           0       124.373421   -200.000000  -15875.00097    160.503632
   13457           0       124.373421   -200.000000  -16125.00097    175.258835
   13458           0       124.373421   -200.000000  -16375.00000    188.199509
   13459           0       124.373421   -200.000000  -16625.00000    199.530014
   13460           0       124.373421   -200.000000  -16875.00000    209.424423
   13461           0       124.373421   -200.000000  -17125.00000    218.032272
   13462           0       124.373421   -200.000000  -17375.00000    225.483414
   13463           0       124.373421   -200.000000  -17625.00000    231.891754
   13464           0       124.373421   -200.000000  -17875.00000    237.357620
   13465           0       124.373421   -200.000000  -18125.00000    241.969086
   13466           0       124.373421   -200.000000  -18375.00000    245.802444
   13467           0       124.373421   -200.000000  -18625.00000    248.923248
   13468           0       124.373421   -200.000000  -18875.00000    251.386108
   13469           0       124.373421   -200.000000  -19125.00000    253.234879
   13470           0       124.373421   -200.000000  -19375.00000    254.503052
   13471           0       124.373421   -200.000000  -19625.00000    255.213745
   13472           0       124.373421   -200.000000  -19875.00000    255.379517
   13473           0       124.373421   -200.000000  -20125.00000    255.002823
   13474           0       124.373421   -200.000000  -20375.00000    254.075729
   13475           0       124.373421   -200.000000  -20625.00000    252.579865
   13476           0       124.373421   -200.000000  -20875.00000    250.486572
   13477           0       124.373421   -200.000000  -21125.00000    247.756622
   13478           0       124.373421   -200.000000  -21375.00000    244.340134
   13479           0       124.373421   -200.000000  -21625.00000    240.176376
   13480           0       124.373421   -200.000000  -21875.00000    235.193604
   13481           0       124.373421   -200.000000  -22125.00000    229.308777
   13482           0       124.373421   -200.000000  -22375.00000    222.426743
   13483           0       124.373421   -200.000000  -22625.00000    214.439362
   13484           0       124.373421   -200.000000  -22875.00000    205.223755
   13485           0       124.373421   -200.000000  -23125.00000    194.639359
   13486           0       124.373421   -200.000000  -23375.00000    182.523590
   13487           0       124.373421   -200.000000  -23625.00000    168.685593
   13488           0       124.373421   -200.000000  -23875.00000    152.901947
   13489           0       124.373421   -200.000000  -24125.00000    134.921921
   13490           0       124.373421   -200.000000  -24375.00000    114.525787
   13491           0       124.373421   -200.000000  -24625.00000     91.792290
   13492           0       124.373421   -200.000000  -24875.00000     68.334938
   13493           0       124.373421   -200.000000  -25125.00000     52.911671
   13494           0       124.373421   -200.000000  -25375.00000     67.155403
   13495           0       124.373421   -200.000000  -25625.00000    112.965485
   13496           0       124.373421   -200.000000  -25875.00000    180.400146
   13497           0      -124.373421   -200.000000  -13625.00000    229.611374
   13498           0      -124.373421   -200.000000  -13875.00000    148.491562
   13499           0      -124.373421   -200.000000  -14125.00000     88.601830
   13500           0      -124.373421   -200.000000  -14375.00000     54.500729
   13501           0      -124.373421   -200.000000  -14625.00000     56.501835
   13502           0      -124.373421   -200.000000  -14875.00000     78.209999
   13503           0      -124.373421   -200.000000  -15125.00097    102.030006
   13504           0      -124.373421   -200.000000  -15375.00097    123.835106
   13505           0      -124.373421   -200.000000  -15625.00097    143.105637
   13506           0      -124.373421   -200.000000  -15875.00097    160.009338
   13507           0      -124.373421   -200.000000  -16125.00097    174.819717
   13508           0      -124.373421   -200.000000  -16375.00000    187.790878
   13509           0      -124.373421   -200.000000  -16625.00000    199.138260
   13510           0      -124.373421   -200.000000  -16875.00000    209.042587
   13511           0      -124.373421   -200.000000  -17125.00000    217.657089
   13512           0      -124.373421   -200.000000  -17375.00000    225.113968
   13513           0      -124.373421   -200.000000  -17625.00000    231.528519
   13514           0      -124.373421   -200.000000  -17875.00000    237.001846
   13515           0      -124.373421   -200.000000  -18125.00000    241.622345
   13516           0      -124.373421   -200.000000  -18375.00000    245.466812
   13517           0      -124.373421   -200.000000  -18625.00000    248.600708
   13518           0      -124.373421   -200.000000  -18875.00000    251.078705
   13519           0      -124.373421   -200.000000  -19125.00000    252.944855
   13520           0      -124.373421   -200.000000  -19375.00000    254.232620
   13521           0      -124.373421   -200.000000  -19625.00000    254.965073
   13522           0      -124.373421   -200.000000  -19875.00000    255.154968
   13523           0      -124.373421   -200.000000  -20125.00000    254.804779
   13524           0      -124.373421   -200.000000  -20375.00000    253.906738
   13525           0      -124.373421   -200.000000  -20625.00000    252.442719
   13526           0      -124.373421   -200.000000  -20875.00000    250.384277
   13527           0      -124.373421   -200.000000  -21125.00000    247.692383
   13528           0      -124.373421   -200.000000  -21375.00000    244.317535
   13529           0      -124.373421   -200.000000  -21625.00000    240.199463
   13530           0      -124.373421   -200.000000  -21875.00000    235.266922
   13531           0      -124.373421   -200.000000  -22125.00000    229.437286
   13532           0      -124.373421   -200.000000  -22375.00000    222.616211
   13533           0      -124.373421   -200.000000  -22625.00000    214.696335
   13534           0      -124.373421   -200.000000  -22875.00000    205.555847
   13535           0      -124.373421   -200.000000  -23125.00000    195.055496
   13536           0      -124.373421   -200.000000  -23375.00000    183.034531
   13537           0      -124.373421   -200.000000  -23625.00000    169.304962
   13538           0      -124.373421   -200.000000  -23875.00000    153.647598
   13539           0      -124.373421   -200.000000  -24125.00000    135.819672
   13540           0      -124.373421   -200.000000  -24375.00000    115.616028
   13541           0      -124.373421   -200.000000  -24625.00000     93.144897
   13542           0      -124.373421   -200.000000  -24875.00000     70.057434
   13543           0      -124.373421   -200.000000  -25125.00000     54.893143
   13544           0      -124.373421   -200.000000  -25375.00000     68.441315
   13545           0      -124.373421   -200.000000  -25625.00000    113.500992
   13546           0      -124.373421   -200.000000  -25875.00000    180.560501
   13547           0      -373.120270   -200.000000  -13625.00000    219.201889
   13548           0      -373.120270   -200.000000  -13875.00000    140.973923
   13549           0      -373.120270   -200.000000  -14125.00000     85.443443
   13550           0      -373.120270   -200.000000  -14375.00000     57.854904
   13551           0      -373.120270   -200.000000  -14625.00000     62.991943
   13552           0      -373.120270   -200.000000  -14875.00000     83.188316
   13553           0      -373.120270   -200.000000  -15125.00097    104.867859
   13554           0      -373.120270   -200.000000  -15375.00097    124.741875
   13555           0      -373.120270   -200.000000  -15625.00097    142.358734
   13556           0      -373.120270   -200.000000  -15875.00097    157.869400
   13557           0      -373.120270   -200.000000  -16125.00097    171.513351
   13558           0      -373.120270   -200.000000  -16375.00000    183.513138
   13559           0      -373.120270   -200.000000  -16625.00000    194.054642
   13560           0      -373.120270   -200.000000  -16875.00000    203.292648
   13561           0      -373.120270   -200.000000  -17125.00000    211.358231
   13562           0      -373.120270   -200.000000  -17375.00000    218.364700
   13563           0      -373.120270   -200.000000  -17625.00000    224.411621
   13564           0      -373.120270   -200.000000  -17875.00000    229.587051
   13565           0      -373.120270   -200.000000  -18125.00000    233.968781
   13566           0      -373.120270   -200.000000  -18375.00000    237.624939
   13567           0      -373.120270   -200.000000  -18625.00000    240.614059
   13568           0      -373.120270   -200.000000  -18875.00000    242.985458
   13569           0      -373.120270   -200.000000  -19125.00000    244.779022
   13570           0      -373.120270   -200.000000  -19375.00000    246.025131
   13571           0      -373.120270   -200.000000  -19625.00000    246.744919
   13572           0      -373.120270   -200.000000  -19875.00000    246.950119
   13573           0      -373.120270   -200.000000  -20125.00000    246.643051
   13574           0      -373.120270   -200.000000  -20375.00000    245.816605
   13575           0      -373.120270   -200.000000  -20625.00000    244.454330
   13576           0      -373.120270   -200.000000  -20875.00000    242.530472
   13577           0      -373.120270   -200.000000  -21125.00000    240.009796
   13578           0      -373.120270   -200.000000  -21375.00000    236.847717
   13579           0      -373.120270   -200.000000  -21625.00000    232.990387
   13580           0      -373.120270   -200.000000  -21875.00000    228.374756
   13581           0      -373.120270   -200.000000  -22125.00000    222.928436
   13582           0      -373.120270   -200.000000  -22375.00000    216.569656
   13583           0      -373.120270   -200.000000  -22625.00000    209.206833
   13584           0      -373.120270   -200.000000  -22875.00000    200.737274
   13585           0      -373.120270   -200.000000  -23125.00000    191.045593
   13586           0      -373.120270   -200.000000  -23375.00000    179.999802
   13587           0      -373.120270   -200.000000  -23625.00000    167.448074
   13588           0      -373.120270   -200.000000  -23875.00000    153.215714
   13589           0      -373.120270   -200.000000  -24125.00000    137.118286
   13590           0      -373.120270   -200.000000  -24375.00000    119.027023
   13591           0      -373.120270   -200.000000  -24625.00000     99.140289
   13592           0      -373.120270   -200.000000  -24875.00000     79.032753
   13593           0      -373.120270   -200.000000  -25125.00000     65.357574
   13594           0      -373.120270   -200.000000  -25375.00000     74.045547
   13595           0      -373.120270   -200.000000  -25625.00000    112.801468
   13596           0      -373.120270   -200.000000  -25875.00000    175.809814
   13597           0      -621.867126   -200.000000  -13625.00000    201.400879
   13598           0      -621.867126   -200.000000  -13875.00000    129.582062
   13599           0      -621.867126   -200.000000  -14125.00000     83.859558
   13600           0      -621.867126   -200.000000  -14375.00000     67.920036
   13601           0      -621.867126   -200.000000  -14625.00000     76.264198
   13602           0      -621.867126   -200.000000  -14875.00000     93.221054
   13603           0      -621.867126   -200.000000  -15125.00097    110.767067
   13604           0      -621.867126   -200.000000  -15375.00097    126.842323
   13605           0      -621.867126   -200.000000  -15625.00097    141.182022
   13606           0      -621.867126   -200.000000  -15875.00097    153.913940
   13607           0      -621.867126   -200.000000  -16125.00097    165.227631
   13608           0      -621.867126   -200.000000  -16375.00000    175.284683
   13609           0      -621.867126   -200.000000  -16625.00000    184.214386
   13610           0      -621.867126   -200.000000  -16875.00000    192.119965
   13611           0      -621.867126   -200.000000  -17125.00000    199.087524
   13612           0      -621.867126   -200.000000  -17375.00000    205.192215
   13613           0      -621.867126   -200.000000  -17625.00000    210.501556
   13614           0      -621.867126   -200.000000  -17875.00000    215.077118
   13615           0      -621.867126   -200.000000  -18125.00000    218.975098
   13616           0      -621.867126   -200.000000  -18375.00000    222.246094
   13617           0      -621.867126   -200.000000  -18625.00000    224.934692
   13618           0      -621.867126   -200.000000  -18875.00000    227.079239
   13619           0      -621.867126   -200.000000  -19125.00000    228.711288
   13620           0      -621.867126   -200.000000  -19375.00000    229.855164
   13621           0      -621.867126   -200.000000  -19625.00000    230.527939
   13622           0      -621.867126   -200.000000  -19875.00000    230.739059
   13623           0      -621.867126   -200.000000  -20125.00000    230.490463
   13624           0      -621.867126   -200.000000  -20375.00000    229.776443
   13625           0      -621.867126   -200.000000  -20625.00000    228.583588
   13626           0      -621.867126   -200.000000  -20875.00000    226.891235
   13627           0      -621.867126   -200.000000  -21125.00000    224.671234
   13628           0      -621.867126   -200.000000  -21375.00000    221.888779
   13629           0      -621.867126   -200.000000  -21625.00000    218.502380
   13630           0      -621.867126   -200.000000  -21875.00000    214.464722
   13631           0      -621.867126   -200.000000  -22125.00000    209.723022
   13632           0      -621.867126   -200.000000  -22375.00000    204.219788
   13633           0      -621.867126   -200.000000  -22625.00000    197.892929
   13634           0      -621.867126   -200.000000  -22875.00000    190.675797
   13635           0      -621.867126   -200.000000  -23125.00000    182.495529
   13636           0      -621.867126   -200.000000  -23375.00000    173.271042
   13637           0      -621.867126   -200.000000  -23625.00000    162.907715
   13638           0      -621.867126   -200.000000  -23875.00000    151.296219
   13639           0      -621.867126   -200.000000  -24125.00000    138.317139
   13640           0      -621.867126   -200.000000  -24375.00000    123.895622
   13641           0      -621.867126   -200.000000  -24625.00000    108.197342
   13642           0      -621.867126   -200.000000  -24875.00000     92.321190
   13643           0      -621.867126   -200.000000  -25125.00000     80.398170
   13644           0      -621.867126   -200.000000  -25375.00000     82.895157
   13645           0      -621.867126   -200.000000  -25625.00000    111.124100
   13646           0      -621.867126   -200.000000  -25875.00000    166.207031
   13647           0      -870.613953   -200.000000  -13625.00000    176.334274
   13648           0      -870.613953   -200.000000  -13875.00000    115.093193
   13649           0      -870.613953   -200.000000  -14125.00000     84.700859
   13650           0      -870.613953   -200.000000  -14375.00000     81.704651
   13651           0      -870.613953   -200.000000  -14625.00000     92.228638
   13652           0      -870.613953   -200.000000  -14875.00000    105.562782
   13653           0      -870.613953   -200.000000  -15125.00097    118.088577
   13654           0      -870.613953   -200.000000  -15375.00097    129.212540
   13655           0      -870.613953   -200.000000  -15625.00097    139.049042
   13656           0      -870.613953   -200.000000  -15875.00097    147.843887
   13657           0      -870.613953   -200.000000  -16125.00097    155.782837
   13658           0      -870.613953   -200.000000  -16375.00000    162.988251
   13659           0      -870.613953   -200.000000  -16625.00000    169.531067
   13660           0      -870.613953   -200.000000  -16875.00000    175.452744
   13661           0      -870.613953   -200.000000  -17125.00000    180.780411
   13662           0      -870.613953   -200.000000  -17375.00000    185.535767
   13663           0      -870.613953   -200.000000  -17625.00000    189.740234
   13664           0      -870.613953   -200.000000  -17875.00000    193.416290
   13665           0      -870.613953   -200.000000  -18125.00000    196.587784
   13666           0      -870.613953   -200.000000  -18375.00000    199.278900
   13667           0      -870.613953   -200.000000  -18625.00000    201.513184
   13668           0      -870.613953   -200.000000  -18875.00000    203.312317
   13669           0      -870.613953   -200.000000  -19125.00000    204.695068
   13670           0      -870.613953   -200.000000  -19375.00000    205.676559
   13671           0      -870.613953   -200.000000  -19625.00000    206.267624
   13672           0      -870.613953   -200.000000  -19875.00000    206.474350
   13673           0      -870.613953   -200.000000  -20125.00000    206.297928
   13674           0      -870.613953   -200.000000  -20375.00000    205.734497
   13675           0      -870.613953   -200.000000  -20625.00000    204.775375
   13676           0      -870.613953   -200.000000  -20875.00000    203.407288
   13677           0      -870.613953   -200.000000  -21125.00000    201.612976
   13678           0      -870.613953   -200.000000  -21375.00000    199.371796
   13679           0      -870.613953   -200.000000  -21625.00000    196.660843
   13680           0      -870.613953   -200.000000  -21875.00000    193.456009
   13681           0      -870.613953   -200.000000  -22125.00000    189.733398
   13682           0      -870.613953   -200.000000  -22375.00000    185.470505
   13683           0      -870.613953   -200.000000  -22625.00000    180.647446
   13684           0      -870.613953   -200.000000  -22875.00000    175.246521
   13685           0      -870.613953   -200.000000  -23125.00000    169.251114
   13686           0      -870.613953   -200.000000  -23375.00000    162.639999
   13687           0      -870.613953   -200.000000  -23625.00000    155.380234
   13688           0      -870.613953   -200.000000  -23875.00000    147.411926
   13689           0      -870.613953   -200.000000  -24125.00000    138.640915
   13690           0      -870.613953   -200.000000  -24375.00000    128.942368
   13691           0      -870.613953   -200.000000  -24625.00000    118.256714
   13692           0      -870.613953   -200.000000  -24875.00000    106.930199
   13693           0      -870.613953   -200.000000  -25125.00000     96.787041
   13694           0      -870.613953   -200.000000  -25375.00000     93.703629
   13695           0      -870.613953   -200.000000  -25625.00000    108.982193
   13696           0      -870.613953   -200.000000  -25875.00000    151.911591
   13697           0     -1119.360840   -200.000000  -13625.00000    144.310608
   13698           0     -1119.360840   -200.000000  -13875.00000     99.028183
   13699           0     -1119.360840   -200.000000  -14125.00000     88.574577
   13700           0     -1119.360840   -200.000000  -14375.00000     96.676369
   13701           0     -1119.360840   -200.000000  -14625.00000    108.108925
   13702           0     -1119.360840   -200.000000  -14875.00000    117.710388
   13703           0     -1119.360840   -200.000000  -15125.00097    125.095345
   13704           0     -1119.360840   -200.000000  -15375.00097    130.775909
   13705           0     -1119.360840   -200.000000  -15625.00097    135.394165
   13706           0     -1119.360840   -200.000000  -15875.00097    139.408279
   13707           0     -1119.360840   -200.000000  -16125.00097    143.107849
   13708           0     -1119.360840   -200.000000  -16375.00000    146.637283
   13709           0     -1119.360840   -200.000000  -16625.00000    150.047043
   13710           0     -1119.360840   -200.000000  -16875.00000    153.333084
   13711           0     -1119.360840   -200.000000  -17125.00000    156.465271
   13712           0     -1119.360840   -200.000000  -17375.00000    159.406555
   13713           0     -1119.360840   -200.000000  -17625.00000    162.122360
   13714           0     -1119.360840   -200.000000  -17875.00000    164.585510
   13715           0     -1119.360840   -200.000000  -18125.00000    166.777115
   13716           0     -1119.360840   -200.000000  -18375.00000    168.685837
   13717           0     -1119.360840   -200.000000  -18625.00000    170.306229
   13718           0     -1119.360840   -200.000000  -18875.00000    171.637070
   13719           0     -1119.360840   -200.000000  -19125.00000    172.679550
   13720           0     -1119.360840   -200.000000  -19375.00000    173.435852
   13721           0     -1119.360840   -200.000000  -19625.00000    173.908157
   13722           0     -1119.360840   -200.000000  -19875.00000    174.097778
   13723           0     -1119.360840   -200.000000  -20125.00000    174.004807
   13724           0     -1119.360840   -200.000000  -20375.00000    173.627899
   13725           0     -1119.360840   -200.000000  -20625.00000    172.964706
   13726           0     -1119.360840   -200.000000  -20875.00000    172.012238
   13727           0     -1119.360840   -200.000000  -21125.00000    170.767853
   13728           0     -1119.360840   -200.000000  -21375.00000    169.230469
   13729           0     -1119.360840   -200.000000  -21625.00000    167.402191
   13730           0     -1119.360840   -200.000000  -21875.00000    165.290192
   13731           0     -1119.360840   -200.000000  -22125.00000    162.908417
   13732           0     -1119.360840   -200.000000  -22375.00000    160.279404
   13733           0     -1119.360840   -200.000000  -22625.00000    157.434570
   13734           0     -1119.360840   -200.000000  -22875.00000    154.412857
   13735           0     -1119.360840   -200.000000  -23125.00000    151.254501
   13736           0     -1119.360840   -200.000000  -23375.00000    147.990692
   13737           0     -1119.360840   -200.000000  -23625.00000    144.621231
   13738           0     -1119.360840   -200.000000  -23875.00000    141.089752
   13739           0     -1119.360840   -200.000000  -24125.00000    137.239594
   13740           0     -1119.360840   -200.000000  -24375.00000    132.795837
   13741           0     -1119.360840   -200.000000  -24625.00000    127.348106
   13742           0     -1119.360840   -200.000000  -24875.00000    120.511032
   13743           0     -1119.360840   -200.000000  -25125.00000    112.381012
   13744           0     -1119.360840   -200.000000  -25375.00000    105.185349
   13745           0     -1119.360840   -200.000000  -25625.00000    107.115257
   13746           0     -1119.360840   -200.000000  -25875.00000    133.326340
   13747           0     -1368.107666   -200.000000  -13625.00000    105.771721
   13748           0     -1368.107666   -200.000000  -13875.00000     84.287254
   13749           0     -1368.107666   -200.000000  -14125.00000     95.479706
   13750           0     -1368.107666   -200.000000  -14375.00000    111.177719
   13751           0     -1368.107666   -200.000000  -14625.00000    121.835617
   13752           0     -1368.107666   -200.000000  -14875.00000    127.803177
   13753           0     -1368.107666   -200.000000  -15125.00097    130.313721
   13754           0     -1368.107666   -200.000000  -15375.00097    130.701111
   13755           0     -1368.107666   -200.000000  -15625.00097    129.952576
   13756           0     -1368.107666   -200.000000  -15875.00097    128.783508
   13757           0     -1368.107666   -200.000000  -16125.00097    127.647324
   13758           0     -1368.107666   -200.000000  -16375.00000    126.798813
   13759           0     -1368.107666   -200.000000  -16625.00000    126.345139
   13760           0     -1368.107666   -200.000000  -16875.00000    126.293602
   13761           0     -1368.107666   -200.000000  -17125.00000    126.593460
   13762           0     -1368.107666   -200.000000  -17375.00000    127.165230
   13763           0     -1368.107666   -200.000000  -17625.00000    127.922676
   13764           0     -1368.107666   -200.000000  -17875.00000    128.784393
   13765           0     -1368.107666   -200.000000  -18125.00000    129.680557
   13766           0     -1368.107666   -200.000000  -18375.00000    130.554565
   13767           0     -1368.107666   -200.000000  -18625.00000    131.362839
   13768           0     -1368.107666   -200.000000  -18875.00000    132.073029
   13769           0     -1368.107666   -200.000000  -19125.00000    132.662018
   13770           0     -1368.107666   -200.000000  -19375.00000    133.114090
   13771           0     -1368.107666   -200.000000  -19625.00000    133.419235
   13772           0     -1368.107666   -200.000000  -19875.00000    133.571991
   13773           0     -1368.107666   -200.000000  -20125.00000    133.570816
   13774           0     -1368.107666   -200.000000  -20375.00000    133.417847
   13775           0     -1368.107666   -200.000000  -20625.00000    133.119324
   13776           0     -1368.107666   -200.000000  -20875.00000    132.686386
   13777           0     -1368.107666   -200.000000  -21125.00000    132.136398
   13778           0     -1368.107666   -200.000000  -21375.00000    131.494690
   13779           0     -1368.107666   -200.000000  -21625.00000    130.796646
   13780           0     -1368.107666   -200.000000  -21875.00000    130.089584
   13781           0     -1368.107666   -200.000000  -22125.00000    129.434174
   13782           0     -1368.107666   -200.000000  -22375.00000    128.904343
   13783           0     -1368.107666   -200.000000  -22625.00000    128.584259
   13784           0     -1368.107666   -200.000000  -22875.00000    128.560349
   13785           0     -1368.107666   -200.000000  -23125.00000    128.907059
   13786           0     -1368.107666   -200.000000  -23375.00000    129.662949
   13787           0     -1368.107666   -200.000000  -23625.00000    130.799896
   13788           0     -1368.107666   -200.000000  -23875.00000    132.178314
   13789           0     -1368.107666   -200.000000  -24125.00000    133.510361
   13790           0     -1368.107666   -200.000000  -24375.00000    134.299423
   13791           0     -1368.107666   -200.000000  -24625.00000    133.840195
   13792           0     -1368.107666   -200.000000  -24875.00000    131.181900
   13793           0     -1368.107666   -200.000000  -25125.00000    125.366928
   13794           0     -1368.107666   -200.000000  -25375.00000    116.016083
   13795           0     -1368.107666   -200.000000  -25625.00000    106.279106
   13796           0     -1368.107666   -200.000000  -25875.00000    111.433640
   13797           0     -1616.854492   -200.000000  -13625.00000     62.191757
   13798           0     -1616.854492   -200.000000  -13875.00000     76.056786
   13799           0     -1616.854492   -200.000000  -14125.00000    105.309174
   13800           0     -1616.854492   -200.000000  -14375.00000    123.063835
   13801           0     -1616.854492   -200.000000  -14625.00000    131.918732
   13802           0     -1616.854492   -200.000000  -14875.00000    134.524338
   13803           0     -1616.854492   -200.000000  -15125.00097    132.981354
   13804           0     -1616.854492   -200.000000  -15375.00097    128.889954
   13805           0     -1616.854492   -200.000000  -15625.00097    123.399826
   13806           0     -1616.854492   -200.000000  -15875.00097    117.359741
   13807           0     -1616.854492   -200.000000  -16125.00097    111.350708
   13808           0     -1616.854492   -200.000000  -16375.00000    105.765297
   13809           0     -1616.854492   -200.000000  -16625.00000    100.834267
   13810           0     -1616.854492   -200.000000  -16875.00000     96.670479
   13811           0     -1616.854492   -200.000000  -17125.00000     93.293205
   13812           0     -1616.854492   -200.000000  -17375.00000     90.658508
   13813           0     -1616.854492   -200.000000  -17625.00000     88.681259
   13814           0     -1616.854492   -200.000000  -17875.00000     87.256912
   13815           0     -1616.854492   -200.000000  -18125.00000     86.276360
   13816           0     -1616.854492   -200.000000  -18375.00000     85.637337
   13817           0     -1616.854492   -200.000000  -18625.00000     85.250183
   13818           0     -1616.854492   -200.000000  -18875.00000     85.040932
   13819           0     -1616.854492   -200.000000  -19125.00000     84.951546
   13820           0     -1616.854492   -200.000000  -19375.00000     84.939186
   13821           0     -1616.854492   -200.000000  -19625.00000     84.974892
   13822           0     -1616.854492   -200.000000  -19875.00000     85.042427
   13823           0     -1616.854492   -200.000000  -20125.00000     85.137527
   13824           0     -1616.854492   -200.000000  -20375.00000     85.267632
   13825           0     -1616.854492   -200.000000  -20625.00000     85.452354
   13826           0     -1616.854492   -200.000000  -20875.00000     85.724342
   13827           0     -1616.854492   -200.000000  -21125.00000     86.130600
   13828           0     -1616.854492   -200.000000  -21375.00000     86.733612
   13829           0     -1616.854492   -200.000000  -21625.00000     87.612007
   13830           0     -1616.854492   -200.000000  -21875.00000     88.859413
   13831           0     -1616.854492   -200.000000  -22125.00000     90.580978
   13832           0     -1616.854492   -200.000000  -22375.00000     92.885704
   13833           0     -1616.854492   -200.000000  -22625.00000     95.874336
   13834           0     -1616.854492   -200.000000  -22875.00000     99.622437
   13835           0     -1616.854492   -200.000000  -23125.00000    104.157433
   13836           0     -1616.854492   -200.000000  -23375.00000    109.437302
   13837           0     -1616.854492   -200.000000  -23625.00000    115.314384
   13838           0     -1616.854492   -200.000000  -23875.00000    121.523575
   13839           0     -1616.854492   -200.000000  -24125.00000    127.611000
   13840           0     -1616.854492   -200.000000  -24375.00000    132.965576
   13841           0     -1616.854492   -200.000000  -24625.00000    136.634842
   13842           0     -1616.854492   -200.000000  -24875.00000    137.519547
   13843           0     -1616.854492   -200.000000  -25125.00000    133.900955
   13844           0     -1616.854492   -200.000000  -25375.00000    124.258545
   13845           0     -1616.854492   -200.000000  -25625.00000    106.891403
   13846           0     -1616.854492   -200.000000  -25875.00000     88.673019
   13847           0     -1865.601318   -200.000000  -13625.00000     23.850063
   13848           0     -1865.601318   -200.000000  -13875.00000     82.905548
   13849           0     -1865.601318   -200.000000  -14125.00000    114.088760
   13850           0     -1865.601318   -200.000000  -14375.00000    130.456161
   13851           0     -1865.601318   -200.000000  -14625.00000    137.359924
   13852           0     -1865.601318   -200.000000  -14875.00000    137.628845
   13853           0     -1865.601318   -200.000000  -15125.00000    133.620850
   13854           0     -1865.601318   -200.000000  -15375.00000    126.828316
   13855           0     -1865.601318   -200.000000  -15625.00000    118.439743
   13856           0     -1865.601318   -200.000000  -15875.00000    109.245003
   13857           0     -1865.601318   -200.000000  -16125.00000     99.838676
   13858           0     -1865.601318   -200.000000  -16375.00000     90.612892
   13859           0     -1865.601318   -200.000000  -16625.00000     81.841232
   13860           0     -1865.601318   -200.000000  -16875.00000     73.692055
   13861           0     -1865.601318   -200.000000  -17125.00000     66.267036
   13862           0     -1865.601318   -200.000000  -17375.00000     59.613693
   13863           0     -1865.601318   -200.000000  -17625.00000     53.745018
   13864           0     -1865.601318   -200.000000  -17875.00000     48.647259
   13865           0     -1865.601318   -200.000000  -18125.00000     44.290783
   13866           0     -1865.601318   -200.000000  -18375.00000     40.634346
   13867           0     -1865.601318   -200.000000  -18625.00000     37.631927
   13868           0     -1865.601318   -200.000000  -18875.00000     35.235790
   13869           0     -1865.601318   -200.000000  -19125.00000     33.401909
   13870           0     -1865.601318   -200.000000  -19375.00000     32.093163
   13871           0     -1865.601318   -200.000000  -19625.00000     31.283773
   13872           0     -1865.601318   -200.000000  -19875.00000     30.961746
   13873           0     -1865.601318   -200.000000  -20125.00000     31.130716
   13874           0     -1865.601318   -200.000000  -20375.00000     31.809702
   13875           0     -1865.601318   -200.000000  -20625.00000     33.030937
   13876           0     -1865.601318   -200.000000  -20875.00000     34.836823
   13877           0     -1865.601318   -200.000000  -21125.00000     37.274971
   13878           0     -1865.601318   -200.000000  -21375.00000     40.394936
   13879           0     -1865.601318   -200.000000  -21625.00000     44.243191
   13880           0     -1865.601318   -200.000000  -21875.00000     48.861279
   13881           0     -1865.601318   -200.000000  -22125.00000     54.280636
   13882           0     -1865.601318   -200.000000  -22375.00000     60.519913
   13883           0     -1865.601318   -200.000000  -22625.00000     67.577515
   13884           0     -1865.601318   -200.000000  -22875.00000     75.422943
   13885           0     -1865.601318   -200.000000  -23125.00000     83.987289
   13886           0     -1865.601318   -200.000000  -23375.00000     93.138367
   13887           0     -1865.601318   -200.000000  -23625.00000    102.678001
   13888           0     -1865.601318   -200.000000  -23875.00000    112.273430
   13889           0     -1865.601318   -200.000000  -24125.00000    121.496483
   13890           0     -1865.601318   -200.000000  -24375.00000    129.628067
   13891           0     -1865.601318   -200.000000  -24625.00000    135.862701
   13892           0     -1865.601318   -200.000000  -24875.00000    138.721039
   13893           0     -1865.601318   -200.000000  -25125.00000    136.817001
   13894           0     -1865.601318   -200.000000  -25375.00000    127.116783
   13895           0     -1865.601318   -200.000000  -25625.00000    107.191856
   13896           0     -1865.601318   -200.000000  -25875.00000     71.223129
   13897           0      1865.601318   -200.000000   -124.999985     48.565136
   13898           0      1865.601318   -200.000000   -375.000000     87.319832
   13899           0      1865.601318   -200.000000   -624.999939    113.776459
   13900           0      1865.601318   -200.000000   -874.999878    128.901352
   13901           0      1865.601318   -200.000000  -1125.000000    134.673553
   13902           0      1865.601318   -200.000000  -1375.000244    134.588196
   13903           0      1865.601318   -200.000000  -1625.000000    130.175644
   13904           0      1865.601318   -200.000000  -1874.999512    123.228592
   13905           0      1865.601318   -200.000000  -2125.000000    114.692215
   13906           0      1865.601318   -200.000000  -2375.000488    105.459633
   13907           0      1865.601318   -200.000000  -2624.999756     96.054008
   13908           0      1865.601318   -200.000000  -2874.999268     86.903809
   13909           0      1865.601318   -200.000000  -3124.999512     78.264984
   13910           0      1865.601318   -200.000000  -3375.000488     70.322449
   13911           0      1865.601318   -200.000000  -3625.000000     63.178513
   13912           0      1865.601318   -200.000000  -3875.000244     56.890282
   13913           0      1865.601318   -200.000000  -4125.000488     51.472309
   13914           0      1865.601318   -200.000000  -4375.000488     46.911575
   13915           0      1865.601318   -200.000000  -4625.000488     43.169563
   13916           0      1865.601318   -200.000000  -4875.000000     40.188011
   13917           0      1865.601318   -200.000000  -5124.999023     37.892990
   13918           0      1865.601318   -200.000000  -5374.999023     36.199593
   13919           0      1865.601318   -200.000000  -5625.000000     35.019608
   13920           0      1865.601318   -200.000000  -5875.000977     34.267967
   13921           0      1865.601318   -200.000000  -6125.000977     33.870518
   13922           0      1865.601318   -200.000000  -6375.000000     33.767464
   13923           0      1865.601318   -200.000000  -6624.999512     33.917030
   13924           0      1865.601318   -200.000000  -6875.000488     34.294552
   13925           0      1865.601318   -200.000000  -7124.999512     34.895508
   13926           0      1865.601318   -200.000000  -7374.999023     35.732876
   13927           0      1865.601318   -200.000000  -7625.000000     36.837078
   13928           0      1865.601318   -200.000000  -7875.000488     38.252373
   13929           0      1865.601318   -200.000000  -8124.999512     40.037910
   13930           0      1865.601318   -200.000000  -8374.999023     42.263382
   13931           0      1865.601318   -200.000000  -8625.000000     45.003883
   13932           0      1865.601318   -200.000000  -8875.000977     48.336529
   13933           0      1865.601318   -200.000000  -9125.000000     52.335297
   13934           0      1865.601318   -200.000000  -9374.999023     57.065746
   13935           0      1865.601318   -200.000000  -9625.000000     62.577019
   13936           0      1865.601318   -200.000000  -9874.999023     68.897827
   13937           0      1865.601318   -200.000000  -10125.00000     76.026772
   13938           0      1865.601318   -200.000000  -10375.00000     83.924347
   13939           0      1865.601318   -200.000000  -10624.99902     92.494331
   13940           0      1865.601318   -200.000000  -10875.00195    101.574440
   13941           0      1865.601318   -200.000000  -11125.00195    110.897545
   13942           0      1865.601318   -200.000000  -11375.00097    120.080833
   13943           0      1865.601318   -200.000000  -11625.00097    128.552902
   13944           0      1865.601318   -200.000000  -11875.00000    135.548813
   13945           0      1865.601318   -200.000000  -12125.00000    139.972290
   13946           0      1865.601318   -200.000000  -12374.99902    140.433594
   13947           0      1865.601318   -200.000000  -12625.00097    134.969086
   13948           0      1865.601318   -200.000000  -12874.99804    121.533310
   13949           0      1865.601318   -200.000000  -13124.99707     97.459381
   13950           0      1865.601318   -200.000000  -13374.99804     72.199203
   13951           0      1616.854492   -200.000000   -124.999985     87.598373
   13952           0      1616.854492   -200.000000   -374.999939     93.107597
   13953           0      1616.854492   -200.000000   -624.999878    111.864853
   13954           0      1616.854492   -200.000000   -874.999756    124.879745
   13955           0      1616.854492   -200.000000  -1124.999878    131.557083
   13956           0      1616.854492   -200.000000  -1375.000488    132.899185
   13957           0      1616.854492   -200.000000  -1625.000000    130.764160
   13958           0      1616.854492   -200.000000  -1874.999023    126.368332
   13959           0      1616.854492   -200.000000  -2125.000244    120.847252
   13960           0      1616.854492   -200.000000  -2375.000488    114.939713
   13961           0      1616.854492   -200.000000  -2624.999512    109.220566
   13962           0      1616.854492   -200.000000  -2874.998779    104.038887
   13963           0      1616.854492   -200.000000  -3124.999512     99.607391
   13964           0      1616.854492   -200.000000  -3375.000977     96.008072
   13965           0      1616.854492   -200.000000  -3625.000488     93.234131
   13966           0      1616.854492   -200.000000  -3875.000488     91.214096
   13967           0      1616.854492   -200.000000  -4125.000977     89.841255
   13968           0      1616.854492   -200.000000  -4375.000977     88.993690
   13969           0      1616.854492   -200.000000  -4625.000977     88.550797
   13970           0      1616.854492   -200.000000  -4875.000000     88.403961
   13971           0      1616.854492   -200.000000  -5124.999023     88.460449
   13972           0      1616.854492   -200.000000  -5374.998047     88.645668
   13973           0      1616.854492   -200.000000  -5625.000000     88.901573
   13974           0      1616.854492   -200.000000  -5875.001953     89.184784
   13975           0      1616.854492   -200.000000  -6125.001953     89.463989
   13976           0      1616.854492   -200.000000  -6375.000000     89.717842
   13977           0      1616.854492   -200.000000  -6624.999023     89.933540
   13978           0      1616.854492   -200.000000  -6875.001465     90.105881
   13979           0      1616.854492   -200.000000  -7124.999023     90.235771
   13980           0      1616.854492   -200.000000  -7374.997559     90.330315
   13981           0      1616.854492   -200.000000  -7624.999023     90.403839
   13982           0      1616.854492   -200.000000  -7875.000977     90.479286
   13983           0      1616.854492   -200.000000  -8124.999512     90.588455
   13984           0      1616.854492   -200.000000  -8374.998047     90.774246
   13985           0      1616.854492   -200.000000  -8625.000000     91.093796
   13986           0      1616.854492   -200.000000  -8875.001953     91.619308
   13987           0      1616.854492   -200.000000  -9125.000000     92.438080
   13988           0      1616.854492   -200.000000  -9374.998047     93.651527
   13989           0      1616.854492   -200.000000  -9625.000000     95.371918
   13990           0      1616.854492   -200.000000  -9874.998047     97.710785
   13991           0      1616.854492   -200.000000  -10125.00000    100.766182
   13992           0      1616.854492   -200.000000  -10375.00000    104.601463
   13993           0      1616.854492   -200.000000  -10624.99804    109.222740
   13994           0      1616.854492   -200.000000  -10875.00293    114.547821
   13995           0      1616.854492   -200.000000  -11125.00195    120.382690
   13996           0      1616.854492   -200.000000  -11375.00097    126.382256
   13997           0      1616.854492   -200.000000  -11625.00097    132.027664
   13998           0      1616.854492   -200.000000  -11875.00000    136.580170
   13999           0      1616.854492   -200.000000  -12125.00000    139.062744
   14000           0      1616.854492   -200.000000  -12375.00000    138.256897
   14001           0      1616.854492   -200.000000  -12625.00097    132.822739
   14002           0      1616.854492   -200.000000  -12874.99609    121.962288
   14003           0      1616.854492   -200.000000  -13124.99414    107.902588
   14004           0      1616.854492   -200.000000  -13374.99609    105.868187
   14005           0      1368.107666   -200.000000   -124.999985    126.967369
   14006           0      1368.107666   -200.000000   -374.999939    103.502625
   14007           0      1368.107666   -200.000000   -624.999878    106.891319
   14008           0      1368.107666   -200.000000   -874.999756    116.164597
   14009           0      1368.107666   -200.000000  -1124.999878    123.378197
   14010           0      1368.107666   -200.000000  -1375.000488    127.483315
   14011           0      1368.107666   -200.000000  -1625.000000    129.053879
   14012           0      1368.107666   -200.000000  -1874.999023    129.055969
   14013           0      1368.107666   -200.000000  -2125.000244    128.276321
   14014           0      1368.107666   -200.000000  -2375.000488    127.318977
   14015           0      1368.107666   -200.000000  -2624.999512    126.552910
   14016           0      1368.107666   -200.000000  -2874.998779    126.175781
   14017           0      1368.107666   -200.000000  -3124.999512    126.246391
   14018           0      1368.107666   -200.000000  -3375.000977    126.737694
   14019           0      1368.107666   -200.000000  -3625.000488    127.573700
   14020           0      1368.107666   -200.000000  -3875.000488    128.659149
   14021           0      1368.107666   -200.000000  -4125.000977    129.899078
   14022           0      1368.107666   -200.000000  -4375.000977    131.209137
   14023           0      1368.107666   -200.000000  -4625.000977    132.520218
   14024           0      1368.107666   -200.000000  -4875.000000    133.778549
   14025           0      1368.107666   -200.000000  -5124.999023    134.944946
   14026           0      1368.107666   -200.000000  -5374.998047    135.991653
   14027           0      1368.107666   -200.000000  -5625.000000    136.900146
   14028           0      1368.107666   -200.000000  -5875.001953    137.658630
   14029           0      1368.107666   -200.000000  -6125.001953    138.260117
   14030           0      1368.107666   -200.000000  -6375.000000    138.700821
   14031           0      1368.107666   -200.000000  -6624.999023    138.979187
   14032           0      1368.107666   -200.000000  -6875.001465    139.094833
   14033           0      1368.107666   -200.000000  -7124.999023    139.048492
   14034           0      1368.107666   -200.000000  -7374.997559    138.842026
   14035           0      1368.107666   -200.000000  -7624.999023    138.478638
   14036           0      1368.107666   -200.000000  -7875.000977    137.963394
   14037           0      1368.107666   -200.000000  -8124.999512    137.304779
   14038           0      1368.107666   -200.000000  -8374.998047    136.516144
   14039           0      1368.107666   -200.000000  -8625.000000    135.617188
   14040           0      1368.107666   -200.000000  -8875.001953    134.636566
   14041           0      1368.107666   -200.000000  -9125.000000    133.614349
   14042           0      1368.107666   -200.000000  -9374.998047    132.604202
   14043           0      1368.107666   -200.000000  -9625.000000    131.674118
   14044           0      1368.107666   -200.000000  -9874.998047    130.906281
   14045           0      1368.107666   -200.000000  -10125.00000    130.392059
   14046           0      1368.107666   -200.000000  -10375.00000    130.221909
   14047           0      1368.107666   -200.000000  -10624.99804    130.466064
   14048           0      1368.107666   -200.000000  -10875.00293    131.148788
   14049           0      1368.107666   -200.000000  -11125.00195    132.209610
   14050           0      1368.107666   -200.000000  -11375.00097    133.463486
   14051           0      1368.107666   -200.000000  -11625.00097    134.561630
   14052           0      1368.107666   -200.000000  -11875.00000    134.957901
   14053           0      1368.107666   -200.000000  -12125.00000    133.950134
   14054           0      1368.107666   -200.000000  -12375.00000    130.741669
   14055           0      1368.107666   -200.000000  -12625.00097    125.044235
   14056           0      1368.107666   -200.000000  -12874.99609    118.115692
   14057           0      1368.107666   -200.000000  -13124.99414    117.347733
   14058           0      1368.107666   -200.000000  -13374.99609    141.003937
   14059           0      1119.360840   -200.000000   -124.999985    161.518997
   14060           0      1119.360840   -200.000000   -374.999939    116.429504
   14061           0      1119.360840   -200.000000   -624.999878    101.668190
   14062           0      1119.360840   -200.000000   -874.999756    103.861557
   14063           0      1119.360840   -200.000000  -1124.999878    111.100250
   14064           0      1119.360840   -200.000000  -1375.000488    118.384102
   14065           0      1119.360840   -200.000000  -1625.000000    124.596130
   14066           0      1119.360840   -200.000000  -1874.999023    129.804367
   14067           0      1119.360840   -200.000000  -2125.000244    134.372406
   14068           0      1119.360840   -200.000000  -2375.000488    138.588943
   14069           0      1119.360840   -200.000000  -2624.999512    142.638336
   14070           0      1119.360840   -200.000000  -2874.998779    146.592926
   14071           0      1119.360840   -200.000000  -3124.999512    150.459030
   14072           0      1119.360840   -200.000000  -3375.000977    154.203323
   14073           0      1119.360840   -200.000000  -3625.000488    157.779846
   14074           0      1119.360840   -200.000000  -3875.000488    161.143753
   14075           0      1119.360840   -200.000000  -4125.000977    164.258621
   14076           0      1119.360840   -200.000000  -4375.000977    167.098633
   14077           0      1119.360840   -200.000000  -4625.000977    169.648834
   14078           0      1119.360840   -200.000000  -4875.000000    171.903046
   14079           0      1119.360840   -200.000000  -5124.999023    173.861755
   14080           0      1119.360840   -200.000000  -5374.998047    175.530167
   14081           0      1119.360840   -200.000000  -5625.000000    176.915741
   14082           0      1119.360840   -200.000000  -5875.001953    178.027130
   14083           0      1119.360840   -200.000000  -6125.001953    178.872543
   14084           0      1119.360840   -200.000000  -6375.000000    179.459183
   14085           0      1119.360840   -200.000000  -6624.999023    179.792236
   14086           0      1119.360840   -200.000000  -6875.001465    179.874802
   14087           0      1119.360840   -200.000000  -7124.999023    179.707321
   14088           0      1119.360840   -200.000000  -7374.997559    179.287964
   14089           0      1119.360840   -200.000000  -7624.999023    178.612610
   14090           0      1119.360840   -200.000000  -7875.000977    177.675308
   14091           0      1119.360840   -200.000000  -8124.999512    176.469131
   14092           0      1119.360840   -200.000000  -8374.998047    174.986801
   14093           0      1119.360840   -200.000000  -8625.000000    173.222183
   14094           0      1119.360840   -200.000000  -8875.001953    171.171936
   14095           0      1119.360840   -200.000000  -9125.000000    168.837433
   14096           0      1119.360840   -200.000000  -9374.998047    166.226624
   14097           0      1119.360840   -200.000000  -9625.000000    163.356506
   14098           0      1119.360840   -200.000000  -9874.998047    160.254791
   14099           0      1119.360840   -200.000000  -10125.00000    156.959946
   14100           0      1119.360840   -200.000000  -10375.00000    153.518448
   14101           0      1119.360840   -200.000000  -10624.99804    149.978455
   14102           0      1119.360840   -200.000000  -10875.00293    146.374512
   14103           0      1119.360840   -200.000000  -11125.00195    142.706360
   14104           0      1119.360840   -200.000000  -11375.00097    138.910416
   14105           0      1119.360840   -200.000000  -11625.00097    134.827652
   14106           0      1119.360840   -200.000000  -11875.00000    130.215363
   14107           0      1119.360840   -200.000000  -12125.00000    124.796257
   14108           0      1119.360840   -200.000000  -12375.00000    118.654556
   14109           0      1119.360840   -200.000000  -12625.00097    112.987602
   14110           0      1119.360840   -200.000000  -12874.99609    112.573502
   14111           0      1119.360840   -200.000000  -13124.99414    128.054062
   14112           0      1119.360840   -200.000000  -13374.99609    172.164169
   14113           0       870.613953   -200.000000   -124.999985    189.789673
   14114           0       870.613953   -200.000000   -374.999939    129.231079
   14115           0       870.613953   -200.000000   -624.999878     97.396172
   14116           0       870.613953   -200.000000   -874.999756     89.887703
   14117           0       870.613953   -200.000000  -1124.999878     96.112320
   14118           0       870.613953   -200.000000  -1375.000488    106.857735
   14119           0       870.613953   -200.000000  -1625.000000    118.123993
   14120           0       870.613953   -200.000000  -1874.999023    128.746948
   14121           0       870.613953   -200.000000  -2125.000244    138.515350
   14122           0       870.613953   -200.000000  -2375.000488    147.477936
   14123           0       870.613953   -200.000000  -2624.999512    155.708588
   14124           0       870.613953   -200.000000  -2874.998779    163.265030
   14125           0       870.613953   -200.000000  -3124.999512    170.180176
   14126           0       870.613953   -200.000000  -3375.000977    176.474869
   14127           0       870.613953   -200.000000  -3625.000488    182.165573
   14128           0       870.613953   -200.000000  -3875.000488    187.271057
   14129           0       870.613953   -200.000000  -4125.000977    191.813263
   14130           0       870.613953   -200.000000  -4375.000977    195.817886
   14131           0       870.613953   -200.000000  -4625.000977    199.313751
   14132           0       870.613953   -200.000000  -4875.000000    202.331024
   14133           0       870.613953   -200.000000  -5124.999023    204.900024
   14134           0       870.613953   -200.000000  -5374.998047    207.049744
   14135           0       870.613953   -200.000000  -5625.000000    208.806717
   14136           0       870.613953   -200.000000  -5875.001953    210.194122
   14137           0       870.613953   -200.000000  -6125.001953    211.231277
   14138           0       870.613953   -200.000000  -6375.000000    211.933136
   14139           0       870.613953   -200.000000  -6624.999023    212.309967
   14140           0       870.613953   -200.000000  -6875.001465    212.367081
   14141           0       870.613953   -200.000000  -7124.999023    212.104950
   14142           0       870.613953   -200.000000  -7374.997559    211.518997
   14143           0       870.613953   -200.000000  -7624.999023    210.599777
   14144           0       870.613953   -200.000000  -7875.000977    209.333328
   14145           0       870.613953   -200.000000  -8124.999512    207.701401
   14146           0       870.613953   -200.000000  -8374.998047    205.681870
   14147           0       870.613953   -200.000000  -8625.000000    203.249435
   14148           0       870.613953   -200.000000  -8875.001953    200.376770
   14149           0       870.613953   -200.000000  -9125.000000    197.035675
   14150           0       870.613953   -200.000000  -9374.998047    193.198105
   14151           0       870.613953   -200.000000  -9625.000000    188.837845
   14152           0       870.613953   -200.000000  -9874.998047    183.932693
   14153           0       870.613953   -200.000000  -10125.00000    178.464615
   14154           0       870.613953   -200.000000  -10375.00000    172.420288
   14155           0       870.613953   -200.000000  -10624.99804    165.789352
   14156           0       870.613953   -200.000000  -10875.00293    158.559509
   14157           0       870.613953   -200.000000  -11125.00195    150.709717
   14158           0       870.613953   -200.000000  -11375.00097    142.202148
   14159           0       870.613953   -200.000000  -11625.00097    132.995377
   14160           0       870.613953   -200.000000  -11875.00000    123.093452
   14161           0       870.613953   -200.000000  -12125.00000    112.806885
   14162           0       870.613953   -200.000000  -12375.00000    103.365898
   14163           0       870.613953   -200.000000  -12625.00097     98.645302
   14164           0       870.613953   -200.000000  -12874.99609    106.919495
   14165           0       870.613953   -200.000000  -13124.99414    138.112976
   14166           0       870.613953   -200.000000  -13374.99609    197.556183
   14167           0       621.867126   -200.000000   -124.999985    211.161148
   14168           0       621.867126   -200.000000   -374.999939    140.000214
   14169           0       621.867126   -200.000000   -624.999878     94.412926
   14170           0       621.867126   -200.000000   -874.999756     76.040337
   14171           0       621.867126   -200.000000  -1124.999878     80.375656
   14172           0       621.867126   -200.000000  -1375.000488     94.758911
   14173           0       621.867126   -200.000000  -1625.000000    111.104622
   14174           0       621.867126   -200.000000  -1874.999023    126.733772
   14175           0       621.867126   -200.000000  -2125.000244    141.008713
   14176           0       621.867126   -200.000000  -2375.000488    153.871536
   14177           0       621.867126   -200.000000  -2624.999512    165.413040
   14178           0       621.867126   -200.000000  -2874.998779    175.742813
   14179           0       621.867126   -200.000000  -3124.999512    184.962936
   14180           0       621.867126   -200.000000  -3375.000977    193.161942
   14181           0       621.867126   -200.000000  -3625.000488    200.419983
   14182           0       621.867126   -200.000000  -3875.000488    206.811630
   14183           0       621.867126   -200.000000  -4125.000977    212.406540
   14184           0       621.867126   -200.000000  -4375.000977    217.270187
   14185           0       621.867126   -200.000000  -4625.000977    221.464294
   14186           0       621.867126   -200.000000  -4875.000000    225.045807
   14187           0       621.867126   -200.000000  -5124.999023    228.066620
   14188           0       621.867126   -200.000000  -5374.998047    230.573074
   14189           0       621.867126   -200.000000  -5625.000000    232.605286
   14190           0       621.867126   -200.000000  -5875.001953    234.197021
   14191           0       621.867126   -200.000000  -6125.001953    235.375504
   14192           0       621.867126   -200.000000  -6375.000000    236.161285
   14193           0       621.867126   -200.000000  -6624.999023    236.568344
   14194           0       621.867126   -200.000000  -6875.001465    236.603577
   14195           0       621.867126   -200.000000  -7124.999023    236.267380
   14196           0       621.867126   -200.000000  -7374.997559    235.553223
   14197           0       621.867126   -200.000000  -7624.999023    234.447891
   14198           0       621.867126   -200.000000  -7875.000977    232.931458
   14199           0       621.867126   -200.000000  -8124.999512    230.977570
   14200           0       621.867126   -200.000000  -8374.998047    228.553284
   14201           0       621.867126   -200.000000  -8625.000000    225.619324
   14202           0       621.867126   -200.000000  -8875.001953    222.130844
   14203           0       621.867126   -200.000000  -9125.000000    218.037872
   14204           0       621.867126   -200.000000  -9374.998047    213.285202
   14205           0       621.867126   -200.000000  -9625.000000    207.813675
   14206           0       621.867126   -200.000000  -9874.998047    201.561127
   14207           0       621.867126   -200.000000  -10125.00000    194.462051
   14208           0       621.867126   -200.000000  -10375.00000    186.447601
   14209           0       621.867126   -200.000000  -10624.99804    177.445190
   14210           0       621.867126   -200.000000  -10875.00293    167.375839
   14211           0       621.867126   -200.000000  -11125.00195    156.153244
   14212           0       621.867126   -200.000000  -11375.00097    143.692413
   14213           0       621.867126   -200.000000  -11625.00097    129.942780
   14214           0       621.867126   -200.000000  -11875.00000    115.036613
   14215           0       621.867126   -200.000000  -12125.00000     99.721802
   14216           0       621.867126   -200.000000  -12375.00000     86.751228
   14217           0       621.867126   -200.000000  -12625.00097     83.601936
   14218           0       621.867126   -200.000000  -12874.99609    101.654137
   14219           0       621.867126   -200.000000  -13124.99414    146.075653
   14220           0       621.867126   -200.000000  -13374.99609    216.352600
   14221           0       373.120270   -200.000000   -124.999985    225.307343
   14222           0       373.120270   -200.000000   -374.999939    147.543167
   14223           0       373.120270   -200.000000   -624.999878     92.609032
   14224           0       373.120270   -200.000000   -874.999756     64.430908
   14225           0       373.120270   -200.000000  -1124.999878     66.544128
   14226           0       373.120270   -200.000000  -1375.000488     84.547478
   14227           0       373.120270   -200.000000  -1625.000000    105.300858
   14228           0       373.120270   -200.000000  -1874.999023    124.856606
   14229           0       373.120270   -200.000000  -2125.000244    142.439407
   14230           0       373.120270   -200.000000  -2375.000488    158.051880
   14231           0       373.120270   -200.000000  -2624.999512    171.863449
   14232           0       373.120270   -200.000000  -2874.998779    184.062363
   14233           0       373.120270   -200.000000  -3124.999512    194.817368
   14234           0       373.120270   -200.000000  -3375.000977    204.275146
   14235           0       373.120270   -200.000000  -3625.000488    212.564011
   14236           0       373.120270   -200.000000  -3875.000488    219.798843
   14237           0       373.120270   -200.000000  -4125.000977    226.082458
   14238           0       373.120270   -200.000000  -4375.000977    231.507080
   14239           0       373.120270   -200.000000  -4625.000977    236.156418
   14240           0       373.120270   -200.000000  -4875.000000    240.105118
   14241           0       373.120270   -200.000000  -5124.999023    243.419250
   14242           0       373.120270   -200.000000  -5374.998047    246.156357
   14243           0       373.120270   -200.000000  -5625.000000    248.365540
   14244           0       373.120270   -200.000000  -5875.001953    250.087418
   14245           0       373.120270   -200.000000  -6125.001953    251.354370
   14246           0       373.120270   -200.000000  -6375.000000    252.190643
   14247           0       373.120270   -200.000000  -6624.999023    252.612473
   14248           0       373.120270   -200.000000  -6875.001465    252.627914
   14249           0       373.120270   -200.000000  -7124.999023    252.237259
   14250           0       373.120270   -200.000000  -7374.997559    251.432693
   14251           0       373.120270   -200.000000  -7624.999023    250.198441
   14252           0       373.120270   -200.000000  -7875.000977    248.510803
   14253           0       373.120270   -200.000000  -8124.999512    246.337906
   14254           0       373.120270   -200.000000  -8374.998047    243.639725
   14255           0       373.120270   -200.000000  -8625.000000    240.367737
   14256           0       373.120270   -200.000000  -8875.001953    236.465652
   14257           0       373.120270   -200.000000  -9125.000000    231.868759
   14258           0       373.120270   -200.000000  -9374.998047    226.503845
   14259           0       373.120270   -200.000000  -9625.000000    220.289078
   14260           0       373.120270   -200.000000  -9874.998047    213.134720
   14261           0       373.120270   -200.000000  -10125.00000    204.941010
   14262           0       373.120270   -200.000000  -10375.00000    195.597717
   14263           0       373.120270   -200.000000  -10624.99804    184.981934
   14264           0       373.120270   -200.000000  -10875.00293    172.954117
   14265           0       373.120270   -200.000000  -11125.00195    159.357452
   14266           0       373.120270   -200.000000  -11375.00097    144.022934
   14267           0       373.120270   -200.000000  -11625.00097    126.815163
   14268           0       373.120270   -200.000000  -11875.00000    107.796440
   14269           0       373.120270   -200.000000  -12125.00000     87.872765
   14270           0       373.120270   -200.000000  -12375.00000     71.073921
   14271           0       373.120270   -200.000000  -12625.00097     69.617447
   14272           0       373.120270   -200.000000  -12874.99609     96.877487
   14273           0       373.120270   -200.000000  -13124.99414    150.848816
   14274           0       373.120270   -200.000000  -13374.99609    228.097656
   14275           0       124.373421   -200.000000   -124.999985    232.067841
   14276           0       124.373421   -200.000000   -374.999939    151.195663
   14277           0       124.373421   -200.000000   -624.999878     91.709831
   14278           0       124.373421   -200.000000   -874.999756     57.750282
   14279           0       124.373421   -200.000000  -1124.999878     58.410130
   14280           0       124.373421   -200.000000  -1375.000488     78.990883
   14281           0       124.373421   -200.000000  -1625.000000    102.373688
   14282           0       124.373421   -200.000000  -1874.999023    124.055634
   14283           0       124.373421   -200.000000  -2125.000244    143.342743
   14284           0       124.373421   -200.000000  -2375.000488    160.329147
   14285           0       124.373421   -200.000000  -2624.999512    175.254486
   14286           0       124.373421   -200.000000  -2874.998779    188.357712
   14287           0       124.373421   -200.000000  -3124.999512    199.848053
   14288           0       124.373421   -200.000000  -3375.000977    209.903595
   14289           0       124.373421   -200.000000  -3625.000488    218.678314
   14290           0       124.373421   -200.000000  -3875.000488    226.307663
   14291           0       124.373421   -200.000000  -4125.000977    232.910934
   14292           0       124.373421   -200.000000  -4375.000977    238.593826
   14293           0       124.373421   -200.000000  -4625.000977    243.450745
   14294           0       124.373421   -200.000000  -4875.000000    247.564835
   14295           0       124.373421   -200.000000  -5124.999023    251.009216
   14296           0       124.373421   -200.000000  -5374.998047    253.846802
   14297           0       124.373421   -200.000000  -5625.000000    256.130920
   14298           0       124.373421   -200.000000  -5875.001953    257.905609
   14299           0       124.373421   -200.000000  -6125.001953    259.205597
   14300           0       124.373421   -200.000000  -6375.000000    260.056976
   14301           0       124.373421   -200.000000  -6624.999023    260.476990
   14302           0       124.373421   -200.000000  -6875.001465    260.474365
   14303           0       124.373421   -200.000000  -7124.999023    260.049103
   14304           0       124.373421   -200.000000  -7374.997559    259.192841
   14305           0       124.373421   -200.000000  -7624.999023    257.888519
   14306           0       124.373421   -200.000000  -7875.000977    256.110504
   14307           0       124.373421   -200.000000  -8124.999512    253.824356
   14308           0       124.373421   -200.000000  -8374.998047    250.986465
   14309           0       124.373421   -200.000000  -8625.000000    247.543808
   14310           0       124.373421   -200.000000  -8875.001953    243.434204
   14311           0       124.373421   -200.000000  -9125.000000    238.585739
   14312           0       124.373421   -200.000000  -9374.998047    232.915970
   14313           0       124.373421   -200.000000  -9625.000000    226.331619
   14314           0       124.373421   -200.000000  -9874.998047    218.728363
   14315           0       124.373421   -200.000000  -10125.00000    209.988434
   14316           0       124.373421   -200.000000  -10375.00000    199.978500
   14317           0       124.373421   -200.000000  -10624.99804    188.546707
   14318           0       124.373421   -200.000000  -10875.00293    175.516281
   14319           0       124.373421   -200.000000  -11125.00195    160.680801
   14320           0       124.373421   -200.000000  -11375.00097    143.804871
   14321           0       124.373421   -200.000000  -11625.00097    124.653336
   14322           0       124.373421   -200.000000  -11875.00000    103.142921
   14323           0       124.373421   -200.000000  -12125.00000     79.995987
   14324           0       124.373421   -200.000000  -12375.00000     59.722137
   14325           0       124.373421   -200.000000  -12625.00097     59.030750
   14326           0       124.373421   -200.000000  -12874.99609     92.544327
   14327           0       124.373421   -200.000000  -13124.99414    151.775345
   14328           0       124.373421   -200.000000  -13374.99609    232.558365
   14329           0      -124.373421   -200.000000   -124.999985    231.378128
   14330           0      -124.373421   -200.000000   -374.999939    150.675751
   14331           0      -124.373421   -200.000000   -624.999878     91.549736
   14332           0      -124.373421   -200.000000   -874.999756     58.309666
   14333           0      -124.373421   -200.000000  -1124.999878     59.503025
   14334           0      -124.373421   -200.000000  -1375.000488     80.049133
   14335           0      -124.373421   -200.000000  -1625.000000    103.287827
   14336           0      -124.373421   -200.000000  -1874.999023    124.832069
   14337           0      -124.373421   -200.000000  -2125.000244    143.995422
   14338           0      -124.373421   -200.000000  -2375.000488    160.871567
   14339           0      -124.373421   -200.000000  -2624.999512    175.697739
   14340           0      -124.373421   -200.000000  -2874.998779    188.711578
   14341           0      -124.373421   -200.000000  -3124.999512    200.121277
   14342           0      -124.373421   -200.000000  -3375.000977    210.104004
   14343           0      -124.373421   -200.000000  -3625.000488    218.813004
   14344           0      -124.373421   -200.000000  -3875.000488    226.382965
   14345           0      -124.373421   -200.000000  -4125.000977    232.932648
   14346           0      -124.373421   -200.000000  -4375.000977    238.567123
   14347           0      -124.373421   -200.000000  -4625.000977    243.380356
   14348           0      -124.373421   -200.000000  -4875.000000    247.454971
   14349           0      -124.373421   -200.000000  -5124.999023    250.863632
   14350           0      -124.373421   -200.000000  -5374.998047    253.668991
   14351           0      -124.373421   -200.000000  -5625.000000    255.923996
   14352           0      -124.373421   -200.000000  -5875.001953    257.672424
   14353           0      -124.373421   -200.000000  -6125.001953    258.948822
   14354           0      -124.373421   -200.000000  -6375.000000    259.779114
   14355           0      -124.373421   -200.000000  -6624.999023    260.180359
   14356           0      -124.373421   -200.000000  -6875.001465    260.161194
   14357           0      -124.373421   -200.000000  -7124.999023    259.721588
   14358           0      -124.373421   -200.000000  -7374.997559    258.853180
   14359           0      -124.373421   -200.000000  -7624.999023    257.538910
   14360           0      -124.373421   -200.000000  -7875.000977    255.753189
   14361           0      -124.373421   -200.000000  -8124.999512    253.461700
   14362           0      -124.373421   -200.000000  -8374.998047    250.620773
   14363           0      -124.373421   -200.000000  -8625.000000    247.177704
   14364           0      -124.373421   -200.000000  -8875.001953    243.070297
   14365           0      -124.373421   -200.000000  -9125.000000    238.226700
   14366           0      -124.373421   -200.000000  -9374.998047    232.564362
   14367           0      -124.373421   -200.000000  -9625.000000    225.989792
   14368           0      -124.373421   -200.000000  -9874.998047    218.398132
   14369           0      -124.373421   -200.000000  -10125.00000    209.670456
   14370           0      -124.373421   -200.000000  -10375.00000    199.671585
   14371           0      -124.373421   -200.000000  -10624.99804    188.246262
   14372           0      -124.373421   -200.000000  -10875.00293    175.211899
   14373           0      -124.373421   -200.000000  -11125.00195    160.351791
   14374           0      -124.373421   -200.000000  -11375.00097    143.411499
   14375           0      -124.373421   -200.000000  -11625.00097    124.118256
   14376           0      -124.373421   -200.000000  -11875.00000    102.307274
   14377           0      -124.373421   -200.000000  -12125.00000     78.504951
   14378           0      -124.373421   -200.000000  -12375.00000     56.838177
   14379           0      -124.373421   -200.000000  -12625.00097     54.788864
   14380           0      -124.373421   -200.000000  -12874.99609     88.743950
   14381           0      -124.373421   -200.000000  -13124.99414    148.535797
   14382           0      -124.373421   -200.000000  -13374.99609    229.611908
   14383           0      -373.120270   -200.000000   -124.999985    223.255371
   14384           0      -373.120270   -200.000000   -374.999939    146.020584
   14385           0      -373.120270   -200.000000   -624.999878     92.201134
   14386           0      -373.120270   -200.000000   -874.999756     65.938522
   14387           0      -373.120270   -200.000000  -1124.999878     69.344231
   14388           0      -373.120270   -200.000000  -1375.000488     87.405365
   14389           0      -373.120270   -200.000000  -1625.000000    107.864693
   14390           0      -373.120270   -200.000000  -1874.999023    127.076408
   14391           0      -373.120270   -200.000000  -2125.000244    144.327820
   14392           0      -373.120270   -200.000000  -2375.000488    159.631775
   14393           0      -373.120270   -200.000000  -2624.999512    173.159958
   14394           0      -373.120270   -200.000000  -2874.998779    185.099899
   14395           0      -373.120270   -200.000000  -3124.999512    195.619019
   14396           0      -373.120270   -200.000000  -3375.000977    204.862625
   14397           0      -373.120270   -200.000000  -3625.000488    212.957306
   14398           0      -373.120270   -200.000000  -3875.000488    220.016388
   14399           0      -373.120270   -200.000000  -4125.000977    226.140854
   14400           0      -373.120270   -200.000000  -4375.000977    231.421738
   14401           0      -373.120270   -200.000000  -4625.000977    235.940994
   14402           0      -373.120270   -200.000000  -4875.000000    239.772125
   14403           0      -373.120270   -200.000000  -5124.999023    242.979904
   14404           0      -373.120270   -200.000000  -5374.998047    245.620926
   14405           0      -373.120270   -200.000000  -5625.000000    247.743362
   14406           0      -373.120270   -200.000000  -5875.001953    249.386917
   14407           0      -373.120270   -200.000000  -6125.001953    250.583496
   14408           0      -373.120270   -200.000000  -6375.000000    251.356796
   14409           0      -373.120270   -200.000000  -6624.999023    251.722565
   14410           0      -373.120270   -200.000000  -6875.001465    251.688690
   14411           0      -373.120270   -200.000000  -7124.999023    251.255310
   14412           0      -373.120270   -200.000000  -7374.997559    250.414459
   14413           0      -373.120270   -200.000000  -7624.999023    249.150482
   14414           0      -373.120270   -200.000000  -7875.000977    247.439835
   14415           0      -373.120270   -200.000000  -8124.999512    245.250931
   14416           0      -373.120270   -200.000000  -8374.998047    242.543961
   14417           0      -373.120270   -200.000000  -8625.000000    239.270905
   14418           0      -373.120270   -200.000000  -8875.001953    235.375549
   14419           0      -373.120270   -200.000000  -9125.000000    230.793488
   14420           0      -373.120270   -200.000000  -9374.998047    225.451202
   14421           0      -373.120270   -200.000000  -9625.000000    219.266251
   14422           0      -373.120270   -200.000000  -9874.998047    212.147339
   14423           0      -373.120270   -200.000000  -10125.00000    203.991638
   14424           0      -373.120270   -200.000000  -10375.00000    194.683304
   14425           0      -373.120270   -200.000000  -10624.99804    184.089783
   14426           0      -373.120270   -200.000000  -10875.00293    172.054993
   14427           0      -373.120270   -200.000000  -11125.00195    158.392685
   14428           0      -373.120270   -200.000000  -11375.00097    142.881195
   14429           0      -373.120270   -200.000000  -11625.00097    125.283875
   14430           0      -373.120270   -200.000000  -11875.00000    105.456207
   14431           0      -373.120270   -200.000000  -12125.00000     83.861496
   14432           0      -373.120270   -200.000000  -12375.00000     63.783291
   14433           0      -373.120270   -200.000000  -12625.00097     58.593132
   14434           0      -373.120270   -200.000000  -12874.99609     85.840988
   14435           0      -373.120270   -200.000000  -13124.99414    141.119537
   14436           0      -373.120270   -200.000000  -13374.99609    219.224686
   14437           0      -621.867126   -200.000000   -124.999985    207.795975
   14438           0      -621.867126   -200.000000   -374.999939    137.599274
   14439           0      -621.867126   -200.000000   -624.999878     93.953987
   14440           0      -621.867126   -200.000000   -874.999756     78.201439
   14441           0      -621.867126   -200.000000  -1124.999878     84.088783
   14442           0      -621.867126   -200.000000  -1375.000488     98.761032
   14443           0      -621.867126   -200.000000  -1625.000000    114.871025
   14444           0      -621.867126   -200.000000  -1874.999023    130.101791
   14445           0      -621.867126   -200.000000  -2125.000244    143.932343
   14446           0      -621.867126   -200.000000  -2375.000488    156.350571
   14447           0      -621.867126   -200.000000  -2624.999512    167.464859
   14448           0      -621.867126   -200.000000  -2874.998779    177.393005
   14449           0      -621.867126   -200.000000  -3124.999512    186.240585
   14450           0      -621.867126   -200.000000  -3375.000977    194.096863
   14451           0      -621.867126   -200.000000  -3625.000488    201.041565
   14452           0      -621.867126   -200.000000  -3875.000488    207.147690
   14453           0      -621.867126   -200.000000  -4125.000977    212.483246
   14454           0      -621.867126   -200.000000  -4375.000977    217.111588
   14455           0      -621.867126   -200.000000  -4625.000977    221.092468
   14456           0      -621.867126   -200.000000  -4875.000000    224.480835
   14457           0      -621.867126   -200.000000  -5124.999023    227.326859
   14458           0      -621.867126   -200.000000  -5374.998047    229.675171
   14459           0      -621.867126   -200.000000  -5625.000000    231.564468
   14460           0      -621.867126   -200.000000  -5875.001953    233.027252
   14461           0      -621.867126   -200.000000  -6125.001953    234.089767
   14462           0      -621.867126   -200.000000  -6375.000000    234.771713
   14463           0      -621.867126   -200.000000  -6624.999023    235.086334
   14464           0      -621.867126   -200.000000  -6875.001465    235.040237
   14465           0      -621.867126   -200.000000  -7124.999023    234.633514
   14466           0      -621.867126   -200.000000  -7374.997559    233.859573
   14467           0      -621.867126   -200.000000  -7624.999023    232.705276
   14468           0      -621.867126   -200.000000  -7875.000977    231.151077
   14469           0      -621.867126   -200.000000  -8124.999512    229.170944
   14470           0      -621.867126   -200.000000  -8374.998047    226.732529
   14471           0      -621.867126   -200.000000  -8625.000000    223.797195
   14472           0      -621.867126   -200.000000  -8875.001953    220.320633
   14473           0      -621.867126   -200.000000  -9125.000000    216.253113
   14474           0      -621.867126   -200.000000  -9374.998047    211.539398
   14475           0      -621.867126   -200.000000  -9625.000000    206.119354
   14476           0      -621.867126   -200.000000  -9874.998047    199.928558
   14477           0      -621.867126   -200.000000  -10125.00000    192.896729
   14478           0      -621.867126   -200.000000  -10375.00000    184.946640
   14479           0      -621.867126   -200.000000  -10624.99804    175.990921
   14480           0      -621.867126   -200.000000  -10875.00293    165.925217
   14481           0      -621.867126   -200.000000  -11125.00195    154.619949
   14482           0      -621.867126   -200.000000  -11375.00097    141.913940
   14483           0      -621.867126   -200.000000  -11625.00097    127.619438
   14484           0      -621.867126   -200.000000  -11875.00000    111.612091
   14485           0      -621.867126   -200.000000  -12125.00000     94.160294
   14486           0      -621.867126   -200.000000  -12375.00000     77.307091
   14487           0      -621.867126   -200.000000  -12625.00097     68.932533
   14488           0      -621.867126   -200.000000  -12874.99609     84.509941
   14489           0      -621.867126   -200.000000  -13124.99414    129.845886
   14490           0      -621.867126   -200.000000  -13374.99609    201.449326
   14491           0      -870.613953   -200.000000   -124.999985    185.205276
   14492           0      -870.613953   -200.000000   -374.999939    126.193832
   14493           0      -870.613953   -200.000000   -624.999878     97.167534
   14494           0      -870.613953   -200.000000   -874.999756     92.471085
   14495           0      -870.613953   -200.000000  -1124.999878    100.195030
   14496           0      -870.613953   -200.000000  -1375.000488    111.373062
   14497           0      -870.613953   -200.000000  -1625.000000    122.555527
   14498           0      -870.613953   -200.000000  -1874.999023    132.845520
   14499           0      -870.613953   -200.000000  -2125.000244    142.168121
   14500           0      -870.613953   -200.000000  -2375.000488    150.634842
   14501           0      -870.613953   -200.000000  -2624.999512    158.357117
   14502           0      -870.613953   -200.000000  -2874.998779    165.414063
   14503           0      -870.613953   -200.000000  -3124.999512    171.851273
   14504           0      -870.613953   -200.000000  -3375.000977    177.696945
   14505           0      -870.613953   -200.000000  -3625.000488    182.970734
   14506           0      -870.613953   -200.000000  -3875.000488    187.692413
   14507           0      -870.613953   -200.000000  -4125.000977    191.883224
   14508           0      -870.613953   -200.000000  -4375.000977    195.567444
   14509           0      -870.613953   -200.000000  -4625.000977    198.771790
   14510           0      -870.613953   -200.000000  -4875.000000    201.524399
   14511           0      -870.613953   -200.000000  -5124.999023    203.853363
   14512           0      -870.613953   -200.000000  -5374.998047    205.785660
   14513           0      -870.613953   -200.000000  -5625.000000    207.345947
   14514           0      -870.613953   -200.000000  -5875.001953    208.555817
   14515           0      -870.613953   -200.000000  -6125.001953    209.433212
   14516           0      -870.613953   -200.000000  -6375.000000    209.991974
   14517           0      -870.613953   -200.000000  -6624.999023    210.241516
   14518           0      -870.613953   -200.000000  -6875.001465    210.186600
   14519           0      -870.613953   -200.000000  -7124.999023    209.827347
   14520           0      -870.613953   -200.000000  -7374.997559    209.159119
   14521           0      -870.613953   -200.000000  -7624.999023    208.172745
   14522           0      -870.613953   -200.000000  -7875.000977    206.854660
   14523           0      -870.613953   -200.000000  -8124.999512    205.187286
   14524           0      -870.613953   -200.000000  -8374.998047    203.149338
   14525           0      -870.613953   -200.000000  -8625.000000    200.716400
   14526           0      -870.613953   -200.000000  -8875.001953    197.862152
   14527           0      -870.613953   -200.000000  -9125.000000    194.558990
   14528           0      -870.613953   -200.000000  -9374.998047    190.779037
   14529           0      -870.613953   -200.000000  -9625.000000    186.495163
   14530           0      -870.613953   -200.000000  -9874.998047    181.682571
   14531           0      -870.613953   -200.000000  -10125.00000    176.317490
   14532           0      -870.613953   -200.000000  -10375.00000    170.376251
   14533           0      -870.613953   -200.000000  -10624.99804    163.830200
   14534           0      -870.613953   -200.000000  -10875.00293    156.636337
   14535           0      -870.613953   -200.000000  -11125.00195    148.722260
   14536           0      -870.613953   -200.000000  -11375.00097    139.964310
   14537           0      -870.613953   -200.000000  -11625.00097    130.175583
   14538           0      -870.613953   -200.000000  -11875.00000    119.108932
   14539           0      -870.613953   -200.000000  -12125.00000    106.647034
   14540           0      -870.613953   -200.000000  -12375.00000     93.368805
   14541           0      -870.613953   -200.000000  -12625.00097     82.824455
   14542           0      -870.613953   -200.000000  -12874.99609     85.557892
   14543           0      -870.613953   -200.000000  -13124.99414    115.495605
   14544           0      -870.613953   -200.000000  -13374.99609    176.413666
   14545           0     -1119.360840   -200.000000   -124.999985    155.860794
   14546           0     -1119.360840   -200.000000   -374.999939    113.183441
   14547           0     -1119.360840   -200.000000   -624.999878    101.948570
   14548           0     -1119.360840   -200.000000   -874.999756    106.703178
   14549           0     -1119.360840   -200.000000  -1124.999878    115.164734
   14550           0     -1119.360840   -200.000000  -1375.000488    122.910225
   14551           0     -1119.360840   -200.000000  -1625.000000    129.155182
   14552           0     -1119.360840   -200.000000  -1874.999023    134.156860
   14553           0     -1119.360840   -200.000000  -2125.000244    138.365631
   14554           0     -1119.360840   -200.000000  -2375.000488    142.128082
   14555           0     -1119.360840   -200.000000  -2624.999512    145.668335
   14556           0     -1119.360840   -200.000000  -2874.998779    149.089035
   14557           0     -1119.360840   -200.000000  -3124.999512    152.419540
   14558           0     -1119.360840   -200.000000  -3375.000977    155.642410
   14559           0     -1119.360840   -200.000000  -3625.000488    158.722504
   14560           0     -1119.360840   -200.000000  -3875.000488    161.620895
   14561           0     -1119.360840   -200.000000  -4125.000977    164.304123
   14562           0     -1119.360840   -200.000000  -4375.000977    166.746887
   14563           0     -1119.360840   -200.000000  -4625.000977    168.933533
   14564           0     -1119.360840   -200.000000  -4875.000000    170.856232
   14565           0     -1119.360840   -200.000000  -5124.999023    172.513535
   14566           0     -1119.360840   -200.000000  -5374.998047    173.908386
   14567           0     -1119.360840   -200.000000  -5625.000000    175.046341
   14568           0     -1119.360840   -200.000000  -5875.001953    175.934052
   14569           0     -1119.360840   -200.000000  -6125.001953    176.578247
   14570           0     -1119.360840   -200.000000  -6375.000000    176.984665
   14571           0     -1119.360840   -200.000000  -6624.999023    177.157593
   14572           0     -1119.360840   -200.000000  -6875.001465    177.099319
   14573           0     -1119.360840   -200.000000  -7124.999023    176.810028
   14574           0     -1119.360840   -200.000000  -7374.997559    176.287857
   14575           0     -1119.360840   -200.000000  -7624.999023    175.528961
   14576           0     -1119.360840   -200.000000  -7875.000977    174.528152
   14577           0     -1119.360840   -200.000000  -8124.999512    173.279434
   14578           0     -1119.360840   -200.000000  -8374.998047    171.776794
   14579           0     -1119.360840   -200.000000  -8625.000000    170.015457
   14580           0     -1119.360840   -200.000000  -8875.001953    167.993607
   14581           0     -1119.360840   -200.000000  -9125.000000    165.713806
   14582           0     -1119.360840   -200.000000  -9374.998047    163.184677
   14583           0     -1119.360840   -200.000000  -9625.000000    160.422714
   14584           0     -1119.360840   -200.000000  -9874.998047    157.452972
   14585           0     -1119.360840   -200.000000  -10125.00000    154.307739
   14586           0     -1119.360840   -200.000000  -10375.00000    151.021881
   14587           0     -1119.360840   -200.000000  -10624.99804    147.623291
   14588           0     -1119.360840   -200.000000  -10875.00293    144.113342
   14589           0     -1119.360840   -200.000000  -11125.00195    140.438889
   14590           0     -1119.360840   -200.000000  -11375.00097    136.452713
   14591           0     -1119.360840   -200.000000  -11625.00097    131.862579
   14592           0     -1119.360840   -200.000000  -11875.00000    126.208076
   14593           0     -1119.360840   -200.000000  -12125.00000    118.844627
   14594           0     -1119.360840   -200.000000  -12375.00000    109.254189
   14595           0     -1119.360840   -200.000000  -12625.00097     97.798828
   14596           0     -1119.360840   -200.000000  -12874.99609     89.548889
   14597           0     -1119.360840   -200.000000  -13124.99414     99.592552
   14598           0     -1119.360840   -200.000000  -13374.99609    144.429657
   14599           0     -1368.107666   -200.000000   -124.999985    120.500443
   14600           0     -1368.107666   -200.000000   -374.999939    100.758690
   14601           0     -1368.107666   -200.000000   -624.999878    107.865753
   14602           0     -1368.107666   -200.000000   -874.999756    119.000793
   14603           0     -1368.107666   -200.000000  -1124.999878    127.096283
   14604           0     -1368.107666   -200.000000  -1375.000488    131.562576
   14605           0     -1368.107666   -200.000000  -1625.000000    133.232635
   14606           0     -1368.107666   -200.000000  -1874.999023    133.152512
   14607           0     -1368.107666   -200.000000  -2125.000244    132.155777
   14608           0     -1368.107666   -200.000000  -2375.000488    130.870392
   14609           0     -1368.107666   -200.000000  -2624.999512    129.688492
   14610           0     -1368.107666   -200.000000  -2874.998779    128.831329
   14611           0     -1368.107666   -200.000000  -3124.999512    128.381744
   14612           0     -1368.107666   -200.000000  -3375.000977    128.335449
   14613           0     -1368.107666   -200.000000  -3625.000488    128.635284
   14614           0     -1368.107666   -200.000000  -3875.000488    129.200531
   14615           0     -1368.107666   -200.000000  -4125.000977    129.945801
   14616           0     -1368.107666   -200.000000  -4375.000977    130.792740
   14617           0     -1368.107666   -200.000000  -4625.000977    131.674866
   14618           0     -1368.107666   -200.000000  -4875.000000    132.539169
   14619           0     -1368.107666   -200.000000  -5124.999023    133.345566
   14620           0     -1368.107666   -200.000000  -5374.998047    134.064880
   14621           0     -1368.107666   -200.000000  -5625.000000    134.676773
   14622           0     -1368.107666   -200.000000  -5875.001953    135.167572
   14623           0     -1368.107666   -200.000000  -6125.001953    135.528488
   14624           0     -1368.107666   -200.000000  -6375.000000    135.754333
   14625           0     -1368.107666   -200.000000  -6624.999023    135.842346
   14626           0     -1368.107666   -200.000000  -6875.001465    135.791397
   14627           0     -1368.107666   -200.000000  -7124.999023    135.601913
   14628           0     -1368.107666   -200.000000  -7374.997559    135.275833
   14629           0     -1368.107666   -200.000000  -7624.999023    134.816925
   14630           0     -1368.107666   -200.000000  -7875.000977    134.231323
   14631           0     -1368.107666   -200.000000  -8124.999512    133.529037
   14632           0     -1368.107666   -200.000000  -8374.998047    132.725235
   14633           0     -1368.107666   -200.000000  -8625.000000    131.841827
   14634           0     -1368.107666   -200.000000  -8875.001953    130.909775
   14635           0     -1368.107666   -200.000000  -9125.000000    129.971222
   14636           0     -1368.107666   -200.000000  -9374.998047    129.081055
   14637           0     -1368.107666   -200.000000  -9625.000000    128.307022
   14638           0     -1368.107666   -200.000000  -9874.998047    127.728279
   14639           0     -1368.107666   -200.000000  -10125.00000    127.428772
   14640           0     -1368.107666   -200.000000  -10375.00000    127.485107
   14641           0     -1368.107666   -200.000000  -10624.99804    127.945206
   14642           0     -1368.107666   -200.000000  -10875.00293    128.799072
   14643           0     -1368.107666   -200.000000  -11125.00195    129.937363
   14644           0     -1368.107666   -200.000000  -11375.00097    131.103683
   14645           0     -1368.107666   -200.000000  -11625.00097    131.844147
   14646           0     -1368.107666   -200.000000  -11875.00000    131.443542
   14647           0     -1368.107666   -200.000000  -12125.00000    128.915298
   14648           0     -1368.107666   -200.000000  -12375.00000    122.925667
   14649           0     -1368.107666   -200.000000  -12625.00097    112.236000
   14650           0     -1368.107666   -200.000000  -12874.99609     96.467621
   14651           0     -1368.107666   -200.000000  -13124.99414     85.016678
   14652           0     -1368.107666   -200.000000  -13374.99609    105.951874
   14653           0     -1616.854492   -200.000000   -124.999985     80.854401
   14654           0     -1616.854492   -200.000000   -374.999939     91.837677
   14655           0     -1616.854492   -200.000000   -624.999878    113.304161
   14656           0     -1616.854492   -200.000000   -874.999756    127.357117
   14657           0     -1616.854492   -200.000000  -1124.999878    134.523163
   14658           0     -1616.854492   -200.000000  -1375.000488    136.090195
   14659           0     -1616.854492   -200.000000  -1625.000000    134.069153
   14660           0     -1616.854492   -200.000000  -1874.999023    129.685867
   14661           0     -1616.854492   -200.000000  -2125.000244    124.102196
   14662           0     -1616.854492   -200.000000  -2375.000488    118.048149
   14663           0     -1616.854492   -200.000000  -2624.999512    112.102631
   14664           0     -1616.854492   -200.000000  -2874.998779    106.614021
   14665           0     -1616.854492   -200.000000  -3124.999512    101.803505
   14666           0     -1616.854492   -200.000000  -3375.000977     97.764847
   14667           0     -1616.854492   -200.000000  -3625.000488     94.508537
   14668           0     -1616.854492   -200.000000  -3875.000488     91.981598
   14669           0     -1616.854492   -200.000000  -4125.000977     90.095856
   14670           0     -1616.854492   -200.000000  -4375.000977     88.744789
   14671           0     -1616.854492   -200.000000  -4625.000977     87.819695
   14672           0     -1616.854492   -200.000000  -4875.000000     87.219841
   14673           0     -1616.854492   -200.000000  -5124.999023     86.856903
   14674           0     -1616.854492   -200.000000  -5374.998047     86.658287
   14675           0     -1616.854492   -200.000000  -5625.000000     86.566063
   14676           0     -1616.854492   -200.000000  -5875.001953     86.536079
   14677           0     -1616.854492   -200.000000  -6125.001953     86.535698
   14678           0     -1616.854492   -200.000000  -6375.000000     86.542328
   14679           0     -1616.854492   -200.000000  -6624.999023     86.541916
   14680           0     -1616.854492   -200.000000  -6875.001465     86.528755
   14681           0     -1616.854492   -200.000000  -7124.999023     86.503471
   14682           0     -1616.854492   -200.000000  -7374.997559     86.473717
   14683           0     -1616.854492   -200.000000  -7624.999023     86.454819
   14684           0     -1616.854492   -200.000000  -7875.000977     86.471786
   14685           0     -1616.854492   -200.000000  -8124.999512     86.558762
   14686           0     -1616.854492   -200.000000  -8374.998047     86.761490
   14687           0     -1616.854492   -200.000000  -8625.000000     87.140388
   14688           0     -1616.854492   -200.000000  -8875.001953     87.770454
   14689           0     -1616.854492   -200.000000  -9125.000000     88.740654
   14690           0     -1616.854492   -200.000000  -9374.998047     90.151817
   14691           0     -1616.854492   -200.000000  -9625.000000     92.112312
   14692           0     -1616.854492   -200.000000  -9874.998047     94.725319
   14693           0     -1616.854492   -200.000000  -10125.00000     98.074265
   14694           0     -1616.854492   -200.000000  -10375.00000    102.203407
   14695           0     -1616.854492   -200.000000  -10624.99804    107.093376
   14696           0     -1616.854492   -200.000000  -10875.00293    112.632515
   14697           0     -1616.854492   -200.000000  -11125.00195    118.591698
   14698           0     -1616.854492   -200.000000  -11375.00097    124.580223
   14699           0     -1616.854492   -200.000000  -11625.00097    130.018753
   14700           0     -1616.854492   -200.000000  -11875.00000    134.060287
   14701           0     -1616.854492   -200.000000  -12125.00000    135.555923
   14702           0     -1616.854492   -200.000000  -12375.00000    132.906921
   14703           0     -1616.854492   -200.000000  -12625.00097    124.011673
   14704           0     -1616.854492   -200.000000  -12874.99609    106.215691
   14705           0     -1616.854492   -200.000000  -13124.99414     76.889259
   14706           0     -1616.854492   -200.000000  -13374.99609     62.483345
   14707           0     -1865.601318   -200.000000   -124.999985     43.903294
   14708           0     -1865.601318   -200.000000   -374.999969     87.774910
   14709           0     -1865.601318   -200.000000   -624.999939    114.949463
   14710           0     -1865.601318   -200.000000   -874.999878    130.522675
   14711           0     -1865.601318   -200.000000  -1125.000000    136.427261
   14712           0     -1865.601318   -200.000000  -1375.000244    136.492691
   14713           0     -1865.601318   -200.000000  -1625.000000    132.158951
   14714           0     -1865.601318   -200.000000  -1874.999512    125.290993
   14715           0     -1865.601318   -200.000000  -2125.000000    116.804405
   14716           0     -1865.601318   -200.000000  -2375.000244    107.605446
   14717           0     -1865.601318   -200.000000  -2624.999756     98.208313
   14718           0     -1865.601318   -200.000000  -2874.999512     89.040138
   14719           0     -1865.601318   -200.000000  -3124.999756     80.352676
   14720           0     -1865.601318   -200.000000  -3375.000488     72.325729
   14721           0     -1865.601318   -200.000000  -3625.000244     65.058228
   14722           0     -1865.601318   -200.000000  -3875.000244     58.601833
   14723           0     -1865.601318   -200.000000  -4125.000488     52.970078
   14724           0     -1865.601318   -200.000000  -4375.000488     48.148579
   14725           0     -1865.601318   -200.000000  -4625.000488     44.103424
   14726           0     -1865.601318   -200.000000  -4875.000000     40.784081
   14727           0     -1865.601318   -200.000000  -5124.999512     38.128826
   14728           0     -1865.601318   -200.000000  -5374.999023     36.068340
   14729           0     -1865.601318   -200.000000  -5625.000000     34.529747
   14730           0     -1865.601318   -200.000000  -5875.000977     33.443371
   14731           0     -1865.601318   -200.000000  -6125.000977     32.745579
   14732           0     -1865.601318   -200.000000  -6375.000000     32.386028
   14733           0     -1865.601318   -200.000000  -6624.999512     32.326202
   14734           0     -1865.601318   -200.000000  -6875.000977     32.546185
   14735           0     -1865.601318   -200.000000  -7124.999023     33.040375
   14736           0     -1865.601318   -200.000000  -7374.999023     33.823208
   14737           0     -1865.601318   -200.000000  -7624.999512     34.921612
   14738           0     -1865.601318   -200.000000  -7875.000488     36.379070
   14739           0     -1865.601318   -200.000000  -8125.000000     38.248993
   14740           0     -1865.601318   -200.000000  -8374.999023     40.595161
   14741           0     -1865.601318   -200.000000  -8625.000000     43.484470
   14742           0     -1865.601318   -200.000000  -8875.000977     46.984955
   14743           0     -1865.601318   -200.000000  -9125.000000     51.160011
   14744           0     -1865.601318   -200.000000  -9374.999023     56.065269
   14745           0     -1865.601318   -200.000000  -9625.000000     61.740726
   14746           0     -1865.601318   -200.000000  -9874.999023     68.208038
   14747           0     -1865.601318   -200.000000  -10125.00000     75.458443
   14748           0     -1865.601318   -200.000000  -10375.00000     83.448082
   14749           0     -1865.601318   -200.000000  -10624.99902     92.075569
   14750           0     -1865.601318   -200.000000  -10875.00195    101.173187
   14751           0     -1865.601318   -200.000000  -11125.00097    110.466560
   14752           0     -1865.601318   -200.000000  -11375.00000    119.562454
   14753           0     -1865.601318   -200.000000  -11625.00000    127.865501
   14754           0     -1865.601318   -200.000000  -11875.00000    134.583832
   14755           0     -1865.601318   -200.000000  -12125.00000    138.528976
   14756           0     -1865.601318   -200.000000  -12375.00000    138.205597
   14757           0     -1865.601318   -200.000000  -12625.00000    131.257965
   14758           0     -1865.601318   -200.000000  -12874.99804    114.852280
   14759           0     -1865.601318   -200.000000  -13124.99707     83.644035
   14760           0     -1865.601318   -200.000000  -13374.99804     24.541365


                                                      SUMMARY INFORMATION
                                                  _________________________

                                                         Min/Max Values
    -Source ID--Entity ID---Sub ID-----von Mises---
Min:     2        619          0         0.942709
Max:     1      14356          0       261.197540


                                                         Result Sources
-Source Id---Loadcase Name---------Subcase Name---------Layer Name----
      1     Combined_Loads        Subcase 6            At Z1              
      2     Combined_Loads        Subcase 6            At Z2              



